id,country_city,start_time,end_time,date,mean_temp_celsius,incentive_local,exchange_usd_local,incentive_usd,gender,point_value,site_id,session_n,subject_n,tr_opponet_n,ch_opponent_n,version,treatment,dc_cl_ps,dc_cl_envy,dc_c_ps,dc_c_envy,dc_cl_ps_points,dc_cl_envy_points,dc_c_ps_points,dc_c_envy_points,pr_correct,pr_wrong,pr_not_attempted,tr_correct,tr_wrong,tr_not_attempted,tr_die,tr_total,tr_guess_correct,tr_guess_die,tr_guess_total,tr_other_correct,tr_other_die,tr_other_total,tr_result,tr_points,f_happy,f_energetic,f_frustrated,f_last_meal_min,ch_correct,ch_wrong,ch_not_attempted,ch_die,ch_total,ch_tournament,ch_other_correct,ch_other_die,ch_other_total,ch_result,ch_points,ct_selected,ct_tails,ct_points,task_paid,complete,total_points,total_local_paid,total_usd_paid,final_version,comment,f_last_meal_time,start_time_h,end_time_h,q1_gender,q2_age,q3_education,q4a_live_district,q4b_live_town,q5a_birth_district,q5b_birth_town,q6a_departament,q6b_career,q7_people_household,q8_marital_status,q9_live_with,q10_children_care,q11_children_biological,q12_religion,q13_occupation,q14_socioeconomic_status,q15_income_consistency,q16_membership,q17_exposure_index,q18_stress_1,q19_stress_2,q20_stress_3,q21_stress_4,q22_stress_5,q23_stress_6,q24_stress_7,q25_stress_8,q26_stress_9,q27_stress_10,q28_stress_11,q29_stress_12,q30_stress_13,q31_stress_14,q32_stress_15,q33_last_month_1,q34_last_month_2,q35_last_month_3,q36_last_month_4,q37_last_month_5,q38_last_month_6,q39_last_month_7,q40_last_month_8,q41_last_month_9,q42_last_month_10,q43_satisfaction_1,q44_satisfaction_2,q45_satisfaction_3,q46_satisfaction_4,q47_satisfaction_5,q48_trust_1,q49_trust_2,q50_check,q51_trust_3,q52_trust_4,q53_trust_5,q54_trust_6,q55_trust_7,q56_trust_8,q57_gender_1,q58_gender_2,q59_gender_3,q60_gender_4,q61_gender_5,q62_gender_6,q63_gender_7,q64_gender_8,q65_gender_9,q66_gender_10,q67_gender_11,q68_gender_12,q69_gender_13,q70_gender_14,q71_gender_15,q72_gender_16,q73_gender_17,q74_gender_18,q75_gender_19,q76_gender_20,q77_gender_21,q78_gender_22,q79_gender_23,q80_discounting_1,q81_discounting_2,q82_discounting_3,q83_discounting_4,q84a_friends,q84b_friends,q84c_friends,q85_feelings_1,q86_feelings_2,q87_feelings_3,q88_feelings_4
001018001,mexico_chapingo,12H 16M 0S,13H 14M 0S,2022-06-20,28.5877192982456,100,20,5,Female,10,1,18,1,2,9,A,0,1,2,1,2,16,20,16,23,7,0,5,3,1,8,2,5,5,3,8,6,5,11,0,0,5,7,8,180,9,0,3,3,12,1,9,3,12,1,12,2,0,9.5,4,1,23,330,16.5,1,NA,3 0,12,13,Female,22,5,texcoco,texcoco,tepic,"tepic, nayarit",departamento de ingeneria agroindustrial,ingenieria agroindustrial,3,1,12,0,0,Catholic,6,4,1,Yes,12346,3,2,5,4,2,2,2,3,1,4,2,4,2,2,3,3,3,4,4,3,3,2,3,4,2,4,2,5,4,5,2,3,4,1,3,2,2,2,2,2,1,4,5,1,1,4,5,1,5,1,4,1,1,1,3,3,1,2,4,5,4,4,4,2,36000,4,3,2,NA,8,9,8,3
001018002,mexico_chapingo,12H 16M 0S,13H 14M 0S,2022-06-20,28.5877192982456,100,20,5,Male,10,1,18,2,1,NA,A,0,1,2,1,2,16,20,16,23,5,1,6,6,1,5,5,11,7,4,11,3,2,5,2,22,9,8,3,240,4,0,8,3,7,0,4,3,7,NA,7,2,0,9.5,4,1,23,330,16.5,1,NA,4 0,12,13,Male,24,5,texcoco,texcoco,ixtlayutla,ixtlayutla,dicea,lci,5,1,246,NA,NA,Catholic,6,7,2,Yes,23,2,5,4,4,3,2,3,3,4,3,4,4,1,1,2,4,5,5,1,1,1,1,1,2,1,4,NA,1,4,4,3,2,4,2,3,4,3,2,2,3,4,5,4,1,1,4,3,1,5,1,1,1,1,3,1,2,4,4,3,5,NA,4,4,2,8000,2,0,0,0,7,6,4,9
001018005,mexico_chapingo,12H 16M 0S,13H 14M 0S,2022-06-20,28.5877192982456,100,20,5,Male,10,1,18,5,9,NA,A,0,1,2,1,2,16,20,16,23,6,0,6,7,1,4,2,9,8,1,9,5,6,11,0,0,8,7,3,240,7,0,5,5,12,0,4,3,7,NA,12,3,0,8,4,1,23,330,16.5,1,NA,4 0,12,13,Male,20,5,san luis huexotla,texcoco,oaxaca,oaxaca,sociologia rural,ingenierio agronomo en sociologia rural,3,1,26,NA,NA,Catholic,6,6,3,No,2,4,4,2,5,3,4,2,5,3,4,3,2,1,1,2,3,1,2,4,4,2,4,4,3,2,4,3,5,1,4,3,2,4,2,3,3,2,3,2,3,2,4,4,3,1,2,3,1,4,1,1,1,1,4,2,2,5,2,3,5,4,2,2,2,10000,3,1,0,0,8,9,7,3
001018009,mexico_chapingo,12H 16M 0S,13H 14M 0S,2022-06-20,28.5877192982456,100,20,5,Male,10,1,18,9,5,1,A,0,1,2,1,2,16,20,16,23,1,0,11,5,4,3,6,11,6,4,10,7,2,9,2,22,4,3,0,90,7,5,0,6,13,1,7,6,13,1,13,6,0,1,4,1,23,330,16.5,1,NA,1 30,12,13,Male,22,5,texcoco,cooperativa,NA,NA,irrigacion,ingenieria en irrigacion,4,1,12,0,0,Catholic,6,6,1,Yes,136,4,5,3,2,3,5,4,5,1,3,1,1,4,3,2,5,4,5,3,5,3,2,2,1,4,5,4,4,4,4,3,2,4,1,3,3,2,2,3,2,2,5,5,1,1,4,4,3,5,1,2,1,1,2,NA,2,4,3,4,5,2,1,1,2,30000,4,3,2,0,7,7,6,8
001018010,mexico_chapingo,12H 16M 0S,13H 14M 0S,2022-06-20,28.5877192982456,100,20,5,Male,10,1,18,10,13,9,A,0,1,1,1,1,16,16,12,21,7,0,5,9,0,3,6,15,11,2,13,7,2,9,2,30,8,10,4,30,10,0,2,2,12,1,9,3,12,1,12,6,0,1,4,1,21,310,15.5,1,NA,0 30,12,13,Male,22,5,gustavo a. madero,san pedro el chico,texcoco,san diego,dima,mecanica agricola,3,1,24,0,0,Non-religious,6,8,1,No,356,4,3,1,4,4,2,4,2,3,4,1,1,1,4,1,3,4,2,2,1,2,3,2,4,3,4,NA,2,3,2,3,3,4,2,4,4,4,4,4,2,4,4,5,4,1,5,4,1,5,1,1,1,1,3,4,5,4,4,2,5,3,4,4,2,60000,2,3,2,1,8,9,6,7
001018013,mexico_chapingo,12H 16M 0S,13H 14M 0S,2022-06-20,28.5877192982456,100,20,5,Female,10,1,18,13,10,NA,A,0,1,1,2,2,16,16,20,18,2,0,10,7,0,5,2,9,5,2,7,9,6,15,0,0,8,9,8,120,5,2,5,4,9,0,4,3,7,NA,9,2,0,9.5,4,1,18,280,14,1,NA,2 0,12,13,Female,21,7,texcoco,cooperativa,santiago yauco,nuevo ocotlan,sociologia rural,sociologia rural,5,1,12,0,0,Catholic,6,7,2,Yes,3,5,4,3,2,2,4,2,1,3,5,5,4,1,5,3,4,4,4,5,5,3,2,4,4,3,4,5,5,5,5,3,3,4,1,2,2,2,3,3,3,3,4,5,1,1,5,2,1,5,1,1,1,1,3,4,2,3,4,3,5,3,4,2,2,42000,1,1,0,0,8,8,8,3
001018014,mexico_chapingo,12H 16M 0S,13H 14M 0S,2022-06-20,28.5877192982456,100,20,5,Female,10,1,18,14,15,NA,A,0,1,2,1,2,16,16,16,23,6,0,6,6,2,4,2,8,8,5,13,7,6,13,0,0,3,3,8,90,7,1,4,1,8,0,4,3,7,NA,8,1,0,11,4,1,23,330,16.5,1,NA,1 30,12,13,Female,22,5,texcoco,NA,chahuites,NA,dia,ingeniero agroindustrial,4,1,112,NA,NA,Catholic,6,5,1,No,13456,5,3,5,5,5,3,4,3,4,3,2,4,2,3,3,4,5,5,3,3,3,4,2,3,4,4,NA,3,3,4,3,3,4,1,3,4,2,2,3,4,3,5,4,1,1,5,5,1,5,1,1,1,1,3,4,3,3,3,2,5,3,2,2,3,10000,3,3,3,0,9,8,8,8
001018015,mexico_chapingo,12H 16M 0S,13H 14M 0S,2022-06-20,28.5877192982456,100,20,5,Female,10,1,18,15,14,NA,A,0,1,1,1,2,16,20,16,23,7,0,5,7,1,4,6,13,5,5,10,6,2,8,2,26,7,5,2,120,6,2,4,3,9,0,4,3,7,NA,9,1,0,11,4,1,23,330,16.5,1,NA,2 0,12,13,Female,22,6,texcoco,NA,ixtlahuaca,san pedro,dicea,tronco comun,3,1,24,NA,NA,Catholic,6,4,1,No,36,2,4,2,5,3,1,2,4,3,5,2,5,1,3,1,3,4,4,2,2,4,4,2,3,4,4,NA,3,4,4,2,3,4,2,3,3,2,2,2,2,5,5,5,4,1,3,3,1,5,1,3,1,1,2,3,4,5,3,5,5,2,5,4,1,NA,3,NA,NA,NA,7,8,5,2
001019001,mexico_chapingo,14H 8M 0S,15H 17M 0S,2022-06-20,30.6909090909091,100,20,5,Female,10,1,19,1,2,NA,A,1,1,2,1,2,16,20,12,23,5,0,7,4,2,6,2,6,5,4,9,7,4,11,0,0,6,7,7,30,4,4,4,6,10,0,4,6,10,NA,10,1,0,11,6,1,0,100,5,1,NA,0 30,14,15,Female,19,5,texcoco,NA,puijiapan,las brisas,dicea,lic administracion y negocios,8,1,11,0,0,Catholic,6,6,1,No,246,4,3,2,5,5,3,4,3,2,4,1,2,3,3,3,4,3,3,3,3,3,3,3,2,2,4,3,4,4,4,3,3,6,2,3,4,3,3,3,2,3,4,4,4,1,4,4,1,5,1,1,1,1,1,3,1,3,2,4,5,1,2,3,3,NA,4,1,1,1,7,7,6,4
001019002,mexico_chapingo,14H 8M 0S,15H 17M 0S,2022-06-20,30.6909090909091,100,20,5,Male,10,1,19,2,1,3,A,1,1,2,2,2,16,20,20,23,6,2,4,7,2,3,4,11,6,3,9,4,2,6,2,22,10,10,0,120,4,2,6,1,5,1,4,1,5,1,5,6,0,1,6,1,22,320,16,1,NA,2 0,14,15,Male,23,7,texcoco,NA,san uan ozolotepec,san uan ozolotepec,suelos,ingenieria en recursos naturales renovables,2,1,13,0,0,Catholic,6,3,1,No,6,3,3,1,4,3,2,4,4,2,3,3,2,2,3,2,2,2,3,4,4,2,3,4,3,2,5,5,4,5,5,3,2,6,1,2,2,3,3,3,1,2,5,5,2,1,5,5,1,5,1,3,1,1,3,2,3,3,1,5,5,3,3,4,2,70000,4,1,1,1,9,10,10,1
001019003,mexico_chapingo,14H 8M 0S,15H 17M 0S,2022-06-20,30.6909090909091,100,20,5,Female,10,1,19,3,4,2,A,1,1,2,1,2,16,16,12,18,8,0,4,6,2,4,5,11,8,4,12,3,3,6,2,22,8,9,3,30,8,3,1,5,13,1,8,5,13,1,13,2,0,9.5,6,1,22,320,16,1,NA,0 30,14,15,Female,19,5,u.h. las vegas,texcoco,u.h. las vegas,texcoco,dicea,tronco comun,4,1,467,0,0,Catholic,6,5,1,No,12356,4,4,2,2,1,1,3,4,1,4,1,2,1,1,1,2,2,4,3,2,3,4,4,1,2,4,4,3,3,3,2,3,6,2,4,3,2,2,2,1,1,5,4,1,1,4,4,1,4,1,1,1,1,2,4,3,4,1,1,5,2,1,2,2,50000,3,5,4,0,8,8,8,4
001019004,mexico_chapingo,14H 8M 0S,15H 17M 0S,2022-06-20,30.6909090909091,100,20,5,Female,10,1,19,4,3,NA,A,1,1,1,2,1,16,20,20,21,2,1,9,3,0,9,3,6,5,2,7,6,5,11,0,0,9,8,0,30,6,0,6,4,10,0,4,6,10,NA,10,1,0,11,6,1,0,100,5,1,NA,0 30,14,15,Female,19,5,acolman,tepexpan,acolman,tepexpan,dicea,comercio internacional,3,1,24,0,0,Catholic,6,7,1,No,36,4,3,3,4,2,2,4,3,3,4,2,3,1,3,2,2,3,3,4,3,3,4,3,3,3,3,4,4,2,4,3,3,NA,1,3,3,1,1,2,2,4,4,5,2,1,5,4,2,5,1,1,1,1,2,3,2,4,3,3,5,1,2,1,1,NA,3,5,0,0,8,9,8,2
001019005,mexico_chapingo,14H 8M 0S,15H 17M 0S,2022-06-20,30.6909090909091,100,20,5,Female,10,1,19,5,5,NA,A,1,1,1,1,2,16,16,16,23,2,1,9,6,3,3,6,12,5,4,9,6,6,12,1,12,4,5,5,60,5,1,6,3,8,0,4,6,10,NA,8,1,0,11,6,1,12,220,11,1,NA,1 0,14,15,Female,NA,5,texcoco,chapingo,chicoloapan de alvarez,tepoziuotlan,dicea,tronco comun,8,1,2467,2,0,Catholic,6,4,NA,No,NA,3,4,3,4,3,3,2,3,4,4,3,4,3,4,2,3,3,4,3,3,3,3,3,4,4,4,4,4,4,4,4,2,6,2,3,4,3,3,4,2,3,5,4,3,1,4,4,1,4,1,2,1,1,4,4,3,2,2,NA,NA,NA,NA,NA,NA,NA,NA,NA,NA,NA,NA,NA,NA,NA
001019006,mexico_chapingo,14H 8M 0S,15H 17M 0S,2022-06-20,30.6909090909091,100,20,5,Female,10,1,19,6,4,8,A,1,1,1,2,2,16,16,16,18,5,1,6,7,1,4,6,13,8,2,10,3,3,6,2,26,5,6,0,120,6,2,4,2,8,1,6,2,8,1,8,1,0,11,6,1,26,360,18,1,NA,2 0,14,15,Female,25,7,texcoco,NA,tepexi de rodriguez,NA,suelos,recursos naturales,7,1,2467,0,0,Catholic,6,5,1,No,235,2,3,5,5,5,1,2,3,2,4,1,5,2,5,1,3,4,5,2,2,3,3,2,3,5,2,1,3,5,5,3,3,6,1,2,4,3,2,3,2,3,5,2,4,1,5,5,1,4,1,4,1,1,3,3,3,4,4,2,5,1,3,1,2,70000,2,3,1,1,6,7,6,1
001019007,mexico_chapingo,14H 8M 0S,15H 17M 0S,2022-06-20,30.6909090909091,100,20,5,Female,10,1,19,7,8,NA,A,1,1,1,2,2,16,20,16,23,6,0,6,8,1,3,3,11,8,3,11,6,6,12,0,0,9,9,1,60,6,2,4,4,10,0,4,6,10,NA,10,6,0,1,6,1,0,100,5,1,NA,1 0,14,15,Female,20,5,texcoco,xolache,tlaxiaco,oaxaca,DICEA,tronco comun,2,1,6,0,0,Catholic,6,5,1,No,2,3,4,1,2,2,3,3,4,2,2,1,2,2,2,1,2,1,4,3,3,3,4,3,2,2,3,3,4,4,4,3,3,6,2,4,4,3,3,3,3,3,4,4,1,1,4,4,1,5,1,2,1,1,3,3,2,3,2,2,5,2,3,3,2,50000,3,4,0,1,8,9,9,9
001019008,mexico_chapingo,14H 8M 0S,15H 17M 0S,2022-06-20,30.6909090909091,100,20,5,Male,10,1,19,8,7,6,A,1,1,2,2,2,16,16,16,23,5,1,6,6,4,2,6,12,7,1,8,8,3,11,2,24,8,6,2,300,6,2,4,2,8,1,6,2,8,1,8,6,0,1,6,1,24,340,17,1,NA,5 0,14,15,Male,22,5,texcoco,salitreria,martinez de la torre,manantiales,DICEA,economia,4,1,246,0,0,Non-religious,6,5,4,No,NA,3,2,2,5,3,2,4,2,1,1,1,3,1,2,1,3,2,4,4,3,2,4,4,2,1,4,4,3,5,4,2,2,6,2,3,4,4,2,3,4,2,3,5,3,1,4,4,1,5,1,3,1,1,4,4,3,3,2,2,5,2,3,4,1,70000,2,3,3,3,4,5,5,7
001019009,mexico_chapingo,14H 8M 0S,15H 17M 0S,2022-06-20,30.6909090909091,100,20,5,Male,10,1,19,9,10,11,A,1,1,2,2,2,16,16,16,18,2,0,10,6,1,5,1,7,3,2,5,8,3,11,0,0,6,8,0,900,5,0,7,6,11,1,5,6,11,1,11,6,0,1,6,1,0,100,5,1,NA,15 0,14,15,Male,18,5,texcoco,salitreria,chilapa de alvarez,atzacoaleya,preparatoria agricola,prepararatoria,3,1,12,NA,NA,Protestant/Christian,6,3,4,Yes,3456,3,3,1,4,3,1,2,3,2,5,4,2,3,4,1,3,3,3,4,3,4,4,4,2,2,4,4,5,4,5,2,2,8,1,3,3,2,2,2,2,3,5,4,3,1,4,4,1,5,1,1,1,1,3,1,4,3,3,5,5,4,4,1,3,50000,5,0,0,0,8,8,7,1
001019010,mexico_chapingo,14H 8M 0S,15H 17M 0S,2022-06-20,30.6909090909091,100,20,5,Male,10,1,19,10,9,NA,A,1,1,1,2,1,16,20,16,21,6,0,6,8,3,1,3,11,8,5,13,6,1,7,2,22,6,8,2,60,8,3,1,3,11,0,4,6,10,NA,11,3,0,8,6,1,22,320,16,1,NA,1 0,14,15,Male,19,5,texcoco,chapingo,huixquilucan,san ramon,suelos,IRNR,3,1,24,0,0,Catholic,6,5,1,Yes,6,4,5,1,2,1,3,2,1,1,4,4,1,1,2,1,2,1,3,5,5,1,5,5,1,1,4,5,5,4,4,3,4,6,1,1,2,2,2,3,2,2,5,5,1,1,5,3,1,4,1,1,1,1,2,2,2,2,4,2,5,2,2,1,3,NA,3,0,0,0,9,9,8,1
001019011,mexico_chapingo,14H 8M 0S,15H 17M 0S,2022-06-20,30.6909090909091,100,20,5,Male,10,1,19,11,12,9,A,1,1,2,1,1,16,20,12,16,7,0,5,7,1,4,1,8,9,5,14,5,5,10,0,0,9,9,2,30,7,1,4,1,8,1,7,1,8,1,8,2,0,9.5,6,1,0,100,5,1,NA,0 30,14,15,Male,22,5,texcoco,texcoco,zapopan,zapopan,DICEA,LE,4,1,1112,0,0,Catholic,6,3,1,No,1235,4,2,2,3,2,3,4,4,2,4,2,3,2,4,4,2,2,3,4,4,2,4,4,2,3,2,4,4,4,5,4,5,6,2,4,3,1,1,2,2,2,5,5,2,1,5,5,1,5,1,1,1,1,2,3,3,5,1,2,5,1,1,1,1,15000,3,2,2,0,9,9,9,2
001019012,mexico_chapingo,14H 8M 0S,15H 17M 0S,2022-06-20,30.6909090909091,100,20,5,Male,10,1,19,12,11,13,A,1,1,2,2,1,16,20,20,16,4,0,8,5,5,2,5,10,6,4,10,7,1,8,2,20,6,7,5,120,6,1,5,1,7,1,6,1,7,1,7,2,0,9.5,6,1,20,300,15,1,NA,2 0,14,15,Male,22,5,texcoco,chapingo,meliodoro castillo,tlacotepec guerrero,DICEA,comercio internacional,6,1,2,0,0,Catholic,6,6,2,No,4,3,4,2,4,3,3,3,3,2,3,2,3,2,3,3,3,3,4,3,4,2,3,3,3,2,3,3,3,4,4,2,3,6,1,4,3,2,2,3,3,3,4,4,4,1,4,2,2,5,1,2,1,1,3,3,2,1,3,4,4,4,3,4,1,50000,3,4,0,0,6,7,7,5
001019013,mexico_chapingo,14H 8M 0S,15H 17M 0S,2022-06-20,30.6909090909091,100,20,5,Female,10,1,19,13,14,12,A,1,1,1,1,1,16,20,16,21,4,0,8,4,0,8,6,10,5,4,9,6,4,10,1,10,10,9,0,300,5,0,7,4,9,1,5,4,9,1,9,1,0,11,6,1,10,200,10,1,NA,5 0,14,15,Female,20,5,teotihuacan,santiago zacualuca,teotihuacan,santiago zacualuca,DICEA,tronco comun,5,1,246,0,0,Non-religious,6,6,1,No,1,3,3,4,3,2,3,3,2,4,4,1,2,2,4,1,2,3,3,4,4,2,4,4,2,2,5,NA,4,5,4,4,3,6,1,3,3,2,2,2,2,2,4,4,2,1,4,2,1,4,1,1,1,1,3,3,3,3,3,2,5,3,3,3,3,70000,3,1,1,0,10,10,9,1
001019014,mexico_chapingo,14H 8M 0S,15H 17M 0S,2022-06-20,30.6909090909091,100,20,5,Male,10,1,19,14,13,NA,A,1,1,2,1,2,16,16,16,18,5,0,7,6,0,6,4,10,7,3,10,4,6,10,1,10,5,10,5,720,7,0,5,5,12,0,4,6,10,NA,12,4,0,6.5,6,1,10,200,10,1,NA,12 0,14,15,Male,19,5,texcoco,salitreria,temascaltzingo,san francisco,DICEA,tronco comun,2,1,12,NA,NA,Protestant/Christian,6,7,4,No,3,4,4,3,3,4,4,4,2,3,3,2,3,1,2,4,3,3,4,3,3,3,3,3,3,3,4,NA,4,5,4,2,2,NA,1,3,3,3,3,4,3,3,5,5,2,2,4,4,1,3,1,3,1,1,3,3,3,3,2,2,5,4,4,4,1,60000,3,1,1,1,8,8,10,5
001019015,mexico_chapingo,14H 8M 0S,15H 17M 0S,2022-06-20,30.6909090909091,100,20,5,Female,10,1,19,15,16,13,A,1,1,2,1,2,16,20,16,23,5,0,7,6,3,3,6,12,5,4,9,7,2,9,2,24,8,7,2,120,8,3,1,3,11,1,6,1,7,2,22,6,0,1,6,1,24,340,17,1,NA,2 0,14,15,Female,26,5,texcoco,salitreria,abasolo,guadalupe victoria,DICEA,economia,4,1,6,NA,NA,Non-religious,6,4,1,No,123456,2,2,5,5,4,2,3,2,4,4,1,5,4,5,3,4,2,3,3,4,3,1,4,5,3,2,1,4,5,5,4,3,6,2,4,4,3,2,2,3,5,5,3,1,1,5,5,1,5,1,1,1,1,3,2,3,3,3,5,5,3,3,4,1,1000000,4,2,0,0,3,4,5,4
001019016,mexico_chapingo,14H 8M 0S,15H 17M 0S,2022-06-20,30.6909090909091,100,20,5,Female,10,1,19,16,15,NA,A,1,1,2,1,2,16,20,16,23,3,1,8,7,0,5,2,9,6,3,9,6,6,12,0,0,8,10,0,240,8,0,4,6,14,0,4,6,10,NA,14,4,0,6.5,6,1,0,100,5,1,NA,4 0,14,15,Female,21,5,tepetlaoxtoc,san juan totoloapan,NA,NA,DICEA,comercio internacional,4,1,246,0,0,Catholic,6,8,1,No,36,3,5,2,3,1,4,5,3,1,2,1,2,1,2,1,3,2,3,2,4,2,4,3,2,2,5,5,4,4,4,2,3,6,1,3,4,2,2,2,1,3,5,4,2,1,4,4,1,5,1,1,1,1,2,3,3,2,2,1,5,2,2,2,2,10000,3,4,1,4,8,8,10,1
001020001,mexico_chapingo,18H 8M 0S,19H 15M 0S,2022-06-20,31.5893939393939,100,20,5,Female,10,1,20,1,2,NA,A,1,1,1,2,2,16,20,16,23,7,0,5,6,2,4,3,9,7,4,11,6,6,12,0,0,7,5,0,240,7,0,5,1,8,0,7,1,8,NA,8,4,0,6.5,5,1,7,170,8.5,1,NA,4 0,18,19,Female,20,5,penjamo,ordeña de barajas,penjamo,ordeña de barajas,DICEA,INGEA,7,1,267,1,0,Catholic,6,6,1,No,34,2,3,5,5,3,1,1,3,4,5,1,4,1,3,1,2,3,4,5,5,2,5,2,3,3,4,NA,4,5,5,3,4,5,1,1,3,2,2,2,1,2,5,5,4,1,3,5,1,5,1,3,1,1,2,2,4,5,1,3,5,3,1,1,2,48000,4,2,1,0,8,7,5,1
001020002,mexico_chapingo,18H 8M 0S,19H 15M 0S,2022-06-20,31.5893939393939,100,20,5,Male,10,1,20,2,1,3,A,1,1,2,2,2,16,16,16,23,8,0,4,6,5,1,6,12,8,3,11,6,3,9,2,24,9,8,1,300,5,7,0,5,10,1,5,5,10,1,10,6,0,1,5,1,8,180,9,1,NA,5 0,18,19,Male,21,7,san gabriel chilac,san gabriel chilac,san gabriel chilac,san gabriel chilac,fitotecnia,ingenieria agronomia especializada en fitotecnia,8,1,246,0,0,Catholic,6,6,1,No,1,3,4,2,2,3,2,2,3,3,4,2,2,3,4,3,4,3,4,4,3,3,3,3,2,2,4,4,5,5,5,4,3,5,1,3,3,2,2,2,2,2,4,4,4,2,4,4,2,4,1,3,1,1,3,4,2,3,5,4,5,3,4,2,2,45000,4,5,0,0,8,9,8,2
001020003,mexico_chapingo,18H 8M 0S,19H 15M 0S,2022-06-20,31.5893939393939,100,20,5,Male,10,1,20,3,5,2,A,1,1,2,1,2,16,16,12,23,7,5,0,6,2,4,4,10,10,2,12,4,4,8,2,20,6,7,1,180,6,2,4,2,8,1,6,2,8,1,8,5,0,5,5,1,7,170,8.5,1,NA,3 0,18,19,Male,20,5,texcoco,salitreria,huamatlan,ixcocapa,DIMA,mecanica agricola,3,1,4,NA,NA,Catholic,6,6,4,No,36,2,2,1,2,3,2,3,3,3,4,2,2,2,3,2,4,3,3,4,3,3,3,3,3,2,4,NA,3,4,4,2,3,7,2,3,3,2,2,2,2,4,5,4,2,2,3,1,1,5,1,1,1,1,2,3,2,1,4,3,5,2,3,3,3,200000,2,2,0,0,6,6,7,1
001020005,mexico_chapingo,18H 8M 0S,19H 15M 0S,2022-06-20,31.5893939393939,100,20,5,Female,10,1,20,5,3,NA,A,1,1,1,2,2,16,20,20,23,3,1,8,4,1,7,4,8,5,2,7,6,4,10,0,0,5,3,8,300,7,2,3,4,11,0,7,1,8,NA,11,4,0,6.5,5,1,3,130,6.5,1,NA,5 0,18,19,Female,22,5,teotongo,teotongo,teotongo,teotongo,DICEA,ingeniero economia agricola,5,1,246,NA,NA,Catholic,6,5,3,No,NA,3,4,4,3,1,2,1,2,3,4,1,1,1,3,2,3,3,4,2,2,3,3,3,2,2,4,NA,4,3,4,1,3,5,1,3,2,4,3,3,2,3,5,4,2,1,4,4,1,4,1,1,1,1,3,3,2,2,2,2,5,3,2,2,2,70000,3,1,0,1,7,5,4,4
001020006,mexico_chapingo,18H 8M 0S,19H 15M 0S,2022-06-20,31.5893939393939,100,20,5,Male,10,1,20,6,8,NA,A,1,1,2,1,2,16,20,16,23,5,1,6,8,1,3,5,13,8,6,14,9,4,13,1,13,9,7,8,240,7,1,4,5,12,0,7,1,8,NA,12,6,0,1,5,1,5,150,7.5,1,NA,4 0,18,19,Male,20,5,tejupilco,zacatepec,tejupilco,zacatepec,DIMA,mecanica agricola,2,1,4,0,0,Catholic,6,6,4,No,6,3,2,3,3,4,1,4,2,4,3,3,4,3,5,2,3,4,3,2,4,3,3,4,2,4,4,4,4,5,4,3,2,5,1,4,3,2,2,2,2,3,4,4,3,1,2,5,1,4,2,2,1,1,3,2,3,3,3,4,4,3,3,4,1,30000,3,2,0,7,8,8,7,7
001020008,mexico_chapingo,18H 8M 0S,19H 15M 0S,2022-06-20,31.5893939393939,100,20,5,Female,10,1,20,8,6,10,A,1,1,2,1,2,16,20,16,23,6,0,6,9,1,2,4,13,8,5,13,8,5,13,1,13,9,9,0,360,7,3,2,3,10,1,7,3,10,1,10,6,0,1,5,1,6,160,8,1,NA,6 0,18,19,Female,19,5,acambay,puerto,acambay,puerto,DIMA,mecanica agricola,6,1,NA,NA,NA,Catholic,6,7,4,No,NA,2,1,3,3,2,1,2,3,3,3,3,3,1,4,1,3,3,3,4,3,2,4,4,2,2,4,NA,3,3,4,3,2,5,1,4,3,3,NA,NA,3,2,4,5,2,1,4,NA,1,4,1,3,1,1,2,3,3,3,2,3,5,4,3,3,2,10000,3,0,0,0,7,5,6,3
001020009,mexico_chapingo,18H 8M 0S,19H 15M 0S,2022-06-20,31.5893939393939,100,20,5,Male,10,1,20,9,10,8,A,1,1,2,1,2,16,16,16,18,7,0,5,7,3,2,3,10,6,2,8,7,3,10,1,10,6,7,5,90,5,6,1,4,9,1,5,4,9,1,9,6,0,1,5,1,7,170,8.5,1,NA,1 30,18,19,Male,NA,5,la barca,NA,la barca,NA,fitotecnia,fitotecnia,4,1,246,0,0,Non-religious,6,6,1,Yes,236,4,5,2,2,3,3,1,3,2,3,1,3,1,4,1,3,4,3,4,3,3,3,3,4,2,3,3,3,5,5,3,3,5,1,3,3,4,2,2,1,1,5,4,2,1,5,3,1,5,1,1,1,1,NA,3,3,3,4,3,5,4,3,2,1,200000,3,6,6,2,7,6,6,6
001020010,mexico_chapingo,18H 8M 0S,19H 15M 0S,2022-06-20,31.5893939393939,100,20,5,Male,10,1,20,10,9,8,A,1,1,1,1,1,16,20,16,21,5,0,7,7,0,5,3,10,9,4,13,7,3,10,1,10,10,7,0,60,7,1,4,2,9,1,5,4,9,1,9,1,0,11,5,1,5,150,7.5,1,NA,1 0,18,19,Male,19,5,texcoco,texcoco,texcoco,texcoco,fitotecnia,fitotecnia,3,1,24,0,0,Non-religious,6,7,1,No,6,4,4,3,5,4,5,5,5,2,3,1,3,1,4,1,3,3,3,4,3,3,4,3,3,3,5,5,4,5,5,2,2,5,1,4,4,3,2,2,3,2,5,5,2,1,5,5,1,5,1,1,1,1,NA,4,3,2,2,2,5,2,2,4,2,100000,2,5,5,0,10,10,8,2
001020013,mexico_chapingo,18H 8M 0S,19H 15M 0S,2022-06-20,31.5893939393939,100,20,5,Male,10,1,20,13,14,NA,A,1,1,2,2,1,16,20,20,21,8,1,3,7,1,4,2,9,12,4,16,3,1,4,2,18,6,4,5,120,7,5,0,3,10,0,7,1,8,NA,10,6,0,1,5,1,8,180,9,1,NA,2 0,18,19,Male,20,5,tlatlaunquitepec,puebla,tlatlaunquitepec,huaxtla,fitotecnia,fitotecnia,4,1,246,0,0,Catholic,6,8,2,No,123456,3,1,2,5,5,2,1,3,5,5,1,5,4,5,1,3,2,4,5,3,5,5,3,4,5,2,2,3,4,5,1,1,5,2,4,4,4,4,4,1,1,5,5,1,1,5,5,1,5,1,1,1,1,1,2,5,5,5,2,5,2,1,1,3,80000,4,5,0,0,6,4,3,7
001020014,mexico_chapingo,18H 8M 0S,19H 15M 0S,2022-06-20,31.5893939393939,100,20,5,Male,10,1,20,14,13,NA,A,1,1,2,1,2,16,20,12,18,5,0,7,3,0,9,1,4,1,1,4,7,2,9,0,0,10,10,6,840,7,0,5,5,12,0,7,1,8,NA,12,6,0,1,5,1,5,150,7.5,1,NA,14 0,18,19,Male,18,7,oaxaca,san sebastian,texcoco,salitreria,fitotecnia,fitotecnia,5,1,246,0,0,Non-religious,6,8,3,No,NA,4,5,1,4,2,4,4,3,4,3,1,4,3,5,1,4,3,4,2,4,5,4,3,4,4,5,4,4,4,3,3,3,5,1,3,2,2,2,2,4,3,5,4,3,1,5,5,1,4,1,1,1,1,4,4,3,4,2,3,5,2,2,3,2,48000,3,6,4,6,9,10,10,3
001020015,mexico_chapingo,18H 8M 0S,19H 15M 0S,2022-06-20,31.5893939393939,100,20,5,Male,10,1,20,15,1,NA,A,1,1,1,2,1,16,16,16,21,5,2,5,6,0,6,5,11,6,4,10,6,3,9,2,22,8,9,2,120,7,0,5,2,9,0,7,1,8,NA,9,1,0,11,5,1,5,150,7.5,1,NA,2 0,18,19,Male,19,5,paracho,paracho,paracho,paracho,fitotecnia,ingeniero agronomo especialista en fitotecnia,6,1,246,0,0,Non-religious,6,8,3,No,6,2,2,1,3,2,1,2,5,2,5,1,3,3,2,1,3,2,3,5,5,2,5,5,2,3,4,4,4,5,5,2,3,5,1,3,3,2,2,2,4,1,5,5,1,1,5,5,2,5,1,1,1,1,3,4,4,3,3,1,5,4,2,2,2,60000,3,5,0,5,8,7,7,3
001021001,mexico_chapingo,10H 15M 0S,11H 15M 0S,2022-06-21,30.3966101694915,100,20,5,Female,10,1,21,1,5,13,A,1,1,2,2,2,12,16,16,18,7,0,5,7,2,3,4,11,8,3,11,7,5,12,0,0,7,8,4,60,8,0,4,1,9,1,8,1,9,1,9,2,1,14.5,2,1,16,260,13,1,NA,1 0,10,11,Female,25,7,texcoco,texcoco,huauchinango puebla,huauchinango puebla,CTESTAAM,maestria en ciencias en estrategia agroempresarial,2,1,11,0,0,Catholic,6,6,1,No,3456,5,4,3,3,2,4,3,4,2,4,1,3,1,4,4,2,3,4,4,3,2,4,3,4,2,5,3,2,3,4,3,4,2,1,2,3,1,1,1,3,1,4,5,2,1,4,4,1,5,1,3,1,1,4,2,2,3,2,3,5,3,2,2,1,70000,4,1,1,0,8,7,8,4
001021005,mexico_chapingo,10H 15M 0S,11H 15M 0S,2022-06-21,30.3966101694915,100,20,5,Male,10,1,21,5,1,13,A,1,2,1,2,1,16,20,16,21,5,1,6,7,1,4,5,12,4,5,9,7,4,11,2,24,9,9,1,120,5,2,5,4,9,1,8,1,9,1,9,1,1,11,2,1,20,300,15,1,NA,2 0,10,11,Male,28,6,texcoco,estado de mexico,NA,NA,CTESTAAM,maestria ciencias estrategias agroempresarial,3,1,24,0,0,Non-religious,6,6,1,No,12356,4,5,2,4,2,2,3,4,2,2,2,1,2,1,5,3,2,4,5,3,2,4,3,3,2,4,2,4,5,5,4,1,2,1,3,3,3,2,2,4,2,4,3,1,1,5,2,1,4,1,1,1,1,3,4,4,2,1,4,5,3,2,1,2,60000,4,1,1,0,8,9,8,3
001021006,mexico_chapingo,10H 15M 0S,11H 15M 0S,2022-06-21,30.3966101694915,100,20,5,Male,10,1,21,6,9,NA,A,1,1,1,1,2,16,20,16,23,8,0,4,4,5,3,5,9,6,4,10,7,5,12,0,0,8,7,6,240,7,2,3,5,12,0,7,5,12,NA,12,1,1,11,2,1,20,300,15,1,NA,4 0,10,11,Male,17,4,etla,santiago,etla,santiago,preparatoria,preparatoria,4,1,246,0,0,Non-religious,6,8,NA,No,6,3,4,4,3,2,3,3,5,3,4,1,3,3,3,1,2,3,3,3,2,2,3,2,2,3,4,NA,4,4,3,2,2,2,1,3,3,3,3,3,3,2,5,2,2,1,3,3,1,5,1,1,1,1,2,1,4,4,3,5,1,3,3,3,3,NA,4,2,0,2,8,8,7,4
001021009,mexico_chapingo,10H 15M 0S,11H 15M 0S,2022-06-21,30.3966101694915,100,20,5,Female,10,1,21,9,6,NA,A,1,1,2,1,2,16,16,16,23,7,1,4,7,2,3,5,12,12,6,18,4,5,9,2,24,8,8,1,120,7,3,2,5,12,0,7,5,12,NA,12,1,1,11,2,1,16,260,13,1,NA,2 0,10,11,Female,22,5,NA,NA,NA,NA,suelos,IRNR,3,1,26,0,0,Catholic,6,5,1,No,2,3,3,5,3,3,3,2,4,3,5,1,4,2,5,3,3,3,3,4,3,2,4,3,3,3,3,2,3,4,4,2,5,2,1,3,2,1,1,2,1,3,5,5,2,1,5,5,1,5,1,1,1,1,3,3,3,3,5,5,5,2,3,3,2,50000,3,0,0,0,8,8,7,2
001021010,mexico_chapingo,10H 15M 0S,11H 15M 0S,2022-06-21,30.3966101694915,100,20,5,Female,10,1,21,10,13,NA,A,1,1,1,1,2,16,16,16,18,6,1,5,5,1,6,1,6,7,4,11,3,3,6,1,6,8,8,2,90,8,1,3,2,10,0,7,5,12,NA,10,4,1,21.5,2,1,16,260,13,1,NA,1 30,10,11,Female,17,5,texcoco,texcoco,soledad atzompa,xonotla,preparatoria agricola,NA,6,1,612,2,0,Non-religious,6,3,1,No,4,2,2,1,2,1,2,2,3,1,3,1,1,1,2,1,3,1,3,5,5,1,4,5,2,1,3,4,4,4,4,2,3,2,3,4,4,4,2,2,1,2,5,5,3,1,4,3,1,3,1,1,1,1,3,3,3,3,1,4,5,3,2,2,2,10000,3,2,2,0,8,8,8,2
001021013,mexico_chapingo,10H 15M 0S,11H 15M 0S,2022-06-21,30.3966101694915,100,20,5,Male,10,1,21,13,10,5,A,1,1,1,1,1,16,16,16,21,2,1,9,3,1,8,3,6,7,6,13,5,1,6,1,6,10,10,0,300,2,4,6,5,7,1,2,5,7,1,7,1,1,11,2,1,16,260,13,1,NA,5 0,10,11,Male,21,5,texcoco,texcoco,san juan tepeoxitla oaxaca,san sebastian tlacolulo,preparatoria agricola,propedeutico,6,1,6,0,0,Catholic,6,4,1,No,2,5,5,1,1,1,5,5,5,1,5,5,1,5,5,1,2,1,3,5,5,1,1,5,1,2,5,5,5,5,5,1,5,2,1,2,2,2,1,2,1,1,5,5,1,1,5,5,1,5,1,1,1,1,1,1,1,1,2,4,5,1,1,1,3,5000,5,0,0,0,10,10,10,1
001021014,mexico_chapingo,10H 15M 0S,11H 15M 0S,2022-06-21,30.3966101694915,100,20,5,Male,10,1,21,14,1,NA,A,1,1,2,1,2,16,20,12,23,5,1,6,3,0,9,5,8,10,3,13,7,4,11,0,0,9,8,0,240,3,9,0,6,9,0,7,5,12,NA,9,3,1,18,2,1,20,300,15,1,NA,4 0,10,11,Male,18,4,tioxacapan,morelos,tlayacapan,morelos,preparatoria agricola,NA,4,1,6,0,0,Catholic,6,8,1,No,36,3,3,2,2,2,2,3,2,2,2,1,1,1,2,2,2,2,3,NA,4,4,3,4,2,2,4,4,5,3,4,3,1,2,1,3,3,3,2,2,2,1,4,4,1,1,4,4,1,1,1,1,1,1,3,5,4,4,3,1,5,1,3,4,1,NA,3,2,2,0,8,8,9,2
001024001,mexico_chapingo,16H 8M 0S,17H 19M 0S,2022-06-21,29.1957142857143,100,20,5,Female,10,1,24,1,2,5,A,0,2,1,2,2,16,20,16,23,5,1,6,6,1,5,3,9,5,4,9,6,4,10,0,0,7,9,8,60,6,1,5,5,11,1,6,5,11,1,11,1,1,11,7,1,11,210,10.5,1,NA,1 0,16,17,Female,20,5,texcoco,salitreria,zacualpan,tres cruces,DICEA,TC,8,1,246,0,0,Catholic,6,6,3,No,24,2,4,4,3,1,1,1,2,3,5,2,1,1,5,1,3,3,4,4,3,2,3,4,2,2,4,2,4,3,3,3,2,7,1,3,3,2,2,2,2,1,4,4,5,1,4,4,2,4,1,1,1,1,3,4,4,4,3,2,5,3,2,1,2,7000,2,4,4,0,9,9,9,2
001024002,mexico_chapingo,16H 8M 0S,17H 19M 0S,2022-06-21,29.1957142857143,100,20,5,Female,10,1,24,2,1,4,A,0,1,2,2,2,12,16,16,23,7,0,5,6,1,5,4,10,5,3,8,6,3,9,2,20,6,7,2,120,5,3,4,6,11,1,5,6,11,1,11,6,1,30,7,1,11,210,10.5,1,NA,2 0,16,17,Female,27,7,texcoco,cooperativa,ayala,xalostoc,DICIFO,IFI,3,1,712,0,0,Catholic,6,6,1,Yes,235,5,2,4,5,5,2,5,2,5,5,3,5,3,5,2,4,5,4,2,2,4,2,2,4,5,3,4,2,4,4,3,3,7,2,2,4,2,2,2,2,4,5,4,3,1,4,1,5,5,1,3,1,1,2,3,3,1,3,4,5,3,4,4,3,100000,4,0,0,0,7,7,6,2
001024003,mexico_chapingo,16H 8M 0S,17H 19M 0S,2022-06-21,29.1957142857143,100,20,5,Female,10,1,24,3,4,NA,A,0,1,1,1,2,16,20,16,23,5,1,6,4,0,8,2,6,5,4,9,6,6,12,0,0,7,7,2,60,6,0,6,3,9,0,6,3,9,NA,9,2,1,14.5,7,1,9,190,9.5,1,NA,1 0,16,17,Female,20,5,texcoco,NA,ixhuatlan del cafe veracruz,NA,fitotecnia,horticultura protegida,2,1,1,0,0,Non-religious,6,3,1,No,126,2,2,5,5,5,2,1,3,2,5,1,5,4,5,2,3,4,4,4,2,3,4,2,5,4,2,1,2,3,3,3,3,7,2,3,2,2,2,2,3,2,5,4,2,1,3,2,1,5,1,3,1,1,2,5,3,1,4,1,5,2,4,2,2,70000,2,1,1,1,7,8,8,2
001024004,mexico_chapingo,16H 8M 0S,17H 19M 0S,2022-06-21,29.1957142857143,100,20,5,NA,10,1,24,4,3,2,A,0,1,2,1,2,16,16,16,23,5,1,6,6,1,5,6,12,5,3,8,4,2,6,2,24,8,10,5,360,6,0,6,1,7,1,6,1,7,1,7,4,1,21.5,7,1,7,170,8.5,1,NA,6 0,16,17,NA,20,5,texcoco,salitreria,atzompa,xahuiche,DICEA,comercio internacional,4,1,12,0,0,Protestant/Christian,3,7,1,Yes,156,4,3,1,1,3,4,2,5,1,4,3,3,1,3,1,3,3,3,4,3,2,3,3,3,3,5,2,3,4,5,4,2,7,1,3,2,2,2,2,3,4,4,4,3,1,4,5,1,4,1,1,1,1,4,1,3,2,3,5,5,3,3,4,2,52000,4,1,0,0,8,8,10,7
001024005,mexico_chapingo,16H 8M 0S,17H 19M 0S,2022-06-21,29.1957142857143,100,20,5,Female,10,1,24,5,6,1,A,0,1,1,2,2,16,16,16,23,5,3,4,4,8,0,6,10,5,3,8,5,3,8,2,20,10,10,0,240,3,7,2,1,4,1,3,1,4,1,4,1,1,11,7,1,4,140,7,1,NA,4 0,16,17,Female,20,5,texcoco,cooperativa,pinotepa nacional,pinotepa nacional,DICEA,TC,1,1,NA,0,0,Catholic,6,5,1,No,6,4,4,4,3,2,3,4,3,4,3,2,2,2,3,4,2,3,3,4,4,3,3,3,3,2,4,4,3,4,4,4,3,7,1,3,2,2,2,2,3,3,5,5,2,1,5,5,1,5,1,4,1,1,3,3,3,3,3,4,5,3,2,3,1,70000,3,7,7,0,7,6,6,4
001024006,mexico_chapingo,16H 8M 0S,17H 19M 0S,2022-06-21,29.1957142857143,100,20,5,Female,10,1,24,6,5,NA,A,0,1,1,2,2,16,16,16,23,5,0,7,5,1,6,3,8,7,6,13,4,6,10,0,0,8,9,7,180,7,0,5,6,13,0,6,3,9,NA,13,1,1,11,7,1,13,230,11.5,1,NA,3 0,16,17,Female,19,5,texcoco,san diego,texcoco,san diego,DICEA,TC,4,1,26,0,0,Catholic,6,6,1,No,6,5,4,4,5,3,2,2,3,4,3,1,2,1,3,1,3,3,4,3,3,4,3,2,4,3,4,3,5,5,4,3,3,7,1,3,3,2,1,2,3,3,5,5,1,1,4,5,1,5,1,3,1,1,2,5,4,5,3,1,5,2,3,3,1,60000,3,6,5,0,8,9,9,8
001024008,mexico_chapingo,16H 8M 0S,17H 19M 0S,2022-06-21,29.1957142857143,100,20,5,Male,10,1,24,8,9,NA,A,0,1,2,2,2,16,16,16,23,3,0,9,6,1,5,1,7,7,4,11,6,6,12,0,0,9,10,9,360,6,3,3,2,8,0,6,3,9,NA,8,5,1,26,7,1,8,180,9,1,NA,6 0,16,17,Male,21,5,texcoco,salitreria,atempan,san ambrosio,DICEA,comercio internacional,7,1,2,NA,NA,Catholic,6,6,2,No,6,3,3,1,4,1,3,3,5,1,2,1,2,2,1,1,2,3,2,4,4,2,4,5,2,2,5,5,5,4,4,3,3,7,1,2,3,3,2,2,3,3,4,4,2,1,5,4,1,4,1,2,1,1,1,2,4,4,3,3,5,1,2,1,1,35000,2,1,0,0,8,9,8,3
001024009,mexico_chapingo,16H 8M 0S,17H 19M 0S,2022-06-21,29.1957142857143,100,20,5,Female,10,1,24,9,8,10,A,0,1,1,2,2,16,20,16,23,7,0,5,6,1,5,6,12,8,6,14,6,1,7,2,24,9,8,1,240,6,1,5,2,8,1,6,2,8,1,8,5,1,26,7,1,8,180,9,1,NA,4 0,16,17,Female,20,5,texcoco,huexotla,otumba,belem,DICEA,tronco comun comercio internacional,3,1,11,0,0,Catholic,6,4,1,No,6,5,4,4,4,2,5,5,3,4,1,1,2,5,3,1,4,3,4,2,4,3,3,3,2,3,2,2,4,4,4,3,1,7,1,3,4,3,3,4,2,4,5,5,4,1,5,4,1,5,1,1,1,1,3,4,5,4,1,3,5,3,1,3,2,7000,3,6,6,6,9,8,8,1
001024010,mexico_chapingo,16H 8M 0S,17H 19M 0S,2022-06-21,29.1957142857143,100,20,5,Male,10,1,24,10,13,9,A,0,1,2,1,2,12,16,12,23,5,0,7,6,1,5,5,11,6,5,11,7,2,9,2,22,5,5,0,300,7,5,0,2,9,1,7,2,9,1,9,6,1,30,7,1,9,190,9.5,1,NA,5 0,16,17,Male,18,4,texcoco,NA,queretaro,queretaro,preparatoria,NA,2,1,11,0,0,Non-religious,6,7,1,No,346,5,1,2,5,3,2,5,4,5,4,1,2,1,5,1,4,4,4,3,2,2,2,2,4,5,3,NA,3,5,4,4,3,7,2,4,3,2,2,2,2,4,4,4,3,1,5,1,1,5,1,1,1,1,1,4,5,3,4,2,5,3,4,3,1,300000,3,3,1,1,6,4,4,5
001024013,mexico_chapingo,16H 8M 0S,17H 19M 0S,2022-06-21,29.1957142857143,100,20,5,Female,10,1,24,13,10,NA,A,0,2,1,2,2,16,20,20,23,6,0,6,7,2,3,2,9,9,4,13,6,5,11,0,0,9,8,7,240,6,2,4,2,8,0,6,3,9,NA,8,1,1,11,7,1,8,180,9,1,NA,4 0,16,17,Female,20,5,NA,NA,NA,NA,DICEA,tronco comun,7,1,11,0,0,Catholic,6,4,4,No,NA,5,3,2,5,5,4,5,4,2,5,1,4,1,3,4,3,4,5,3,4,4,4,3,3,4,4,4,3,5,5,3,2,7,2,3,4,2,2,3,3,3,5,4,3,1,5,5,1,5,1,1,1,1,4,3,2,2,3,2,5,3,3,4,2,NA,3,6,1,1,7,7,6,5
001024014,mexico_chapingo,16H 8M 0S,17H 19M 0S,2022-06-21,29.1957142857143,100,20,5,Female,10,1,24,14,15,NA,A,0,2,1,2,2,12,16,16,23,3,0,9,5,3,4,4,9,2,1,3,6,1,7,2,18,10,9,0,240,4,5,3,3,7,0,6,3,9,NA,7,1,1,11,7,1,7,170,8.5,1,NA,4 0,16,17,Female,19,5,texcoco,NA,huitzalan,totutla,DICEA,tronco comun,3,1,12,0,0,Catholic,6,7,1,No,6,4,3,5,2,3,3,3,4,3,2,1,2,2,4,4,4,4,4,2,2,2,3,2,4,4,4,NA,3,4,3,3,4,7,1,2,2,2,2,2,2,3,5,5,2,1,4,4,1,3,1,1,1,1,2,3,3,2,2,3,3,5,2,4,2,NA,3,6,6,0,8,9,8,4
001024015,mexico_chapingo,16H 8M 0S,17H 19M 0S,2022-06-21,29.1957142857143,100,20,5,Female,10,1,24,15,14,NA,A,0,2,1,2,2,12,16,16,23,7,2,3,6,4,2,1,7,6,4,8,5,4,9,0,0,9,9,0,360,8,2,2,3,11,0,6,3,9,NA,11,1,1,11,7,1,11,210,10.5,1,NA,6 0,16,17,Female,24,5,texcoco,salitreria,gomez palacio,durango,DICEA,comercio internacional,4,1,11,0,0,Non-religious,6,7,1,No,5,5,4,3,2,1,5,5,3,1,1,NA,1,3,4,1,2,2,2,4,5,2,4,4,2,2,4,4,4,2,2,2,2,7,3,4,4,4,3,3,1,1,5,5,1,1,4,5,1,5,1,3,1,1,1,3,1,5,1,2,5,2,4,1,3,NA,3,3,0,0,2,1,1,1
001024016,mexico_chapingo,16H 8M 0S,17H 19M 0S,2022-06-21,29.1957142857143,100,20,5,Female,10,1,24,16,1,NA,A,0,2,1,1,1,12,16,12,21,4,1,7,8,4,0,6,14,4,3,7,6,3,9,2,28,10,10,0,120,2,10,0,4,6,0,6,3,9,NA,6,3,1,18,7,1,6,160,8,1,NA,2 0,16,17,Female,26,7,texcoco,salitreria,ensenada,memealero,zootecnia,zootecnia,6,2,1,0,0,Non-religious,2,7,1,No,1,1,2,2,2,2,1,2,3,1,5,1,2,3,NA,3,2,4,1,5,5,5,5,5,2,2,1,1,1,1,1,2,5,7,1,2,2,3,3,3,3,5,5,5,2,1,5,1,4,4,1,1,1,1,1,1,1,5,2,3,5,1,3,3,1,1000000,5,1,0,0,10,10,10,1
001025001,mexico_chapingo,18H 11M 0S,19H 17M 0S,2022-06-21,26.8415384615385,100,20,5,Female,10,1,25,1,2,5,A,0,1,1,2,1,16,16,16,21,4,0,8,7,2,3,5,12,5,4,9,8,3,11,2,24,10,8,8,180,3,6,3,4,7,1,3,4,7,1,7,4,0,6.5,6,1,24,340,17,1,NA,3 0,18,19,Female,18,5,texcoco,chapingo,texcoco,chapingo,fitotecnia,ingeniero agronomo especialista en fitotecnia,1,1,12,0,0,Catholic,6,5,4,No,356,2,4,4,1,1,3,1,2,3,5,1,1,5,5,3,3,4,3,3,2,3,3,2,1,3,3,4,3,4,5,2,3,6,1,3,4,4,4,4,1,2,5,4,4,1,5,1,1,4,1,1,1,1,3,3,1,4,2,2,5,1,1,1,3,50000,4,2,2,2,5,10,8,3
001025002,mexico_chapingo,18H 11M 0S,19H 17M 0S,2022-06-21,26.8415384615385,100,20,5,Male,10,1,25,2,1,NA,A,0,1,1,2,2,16,16,16,18,5,2,5,8,2,2,3,11,7,4,11,7,5,12,0,0,9,9,0,60,5,3,4,3,8,0,5,3,8,NA,8,6,0,1,6,1,0,100,5,1,NA,1 0,18,19,Male,18,5,texcoco,texcoco,san baltazar loxicha oaxaca,san baltazar loxicha oaxaca,fitotecnia,fitotecnia,3,1,12,0,0,Non-religious,6,5,1,No,12346,5,3,1,4,3,5,5,4,2,2,1,3,4,3,4,3,3,3,3,3,3,4,3,3,3,5,4,4,4,4,4,3,6,2,3,4,4,2,3,2,4,3,3,3,1,4,3,1,3,1,4,1,1,3,3,3,3,3,3,5,3,3,2,2,40000,4,2,2,2,8,9,9,2
001025005,mexico_chapingo,18H 11M 0S,19H 17M 0S,2022-06-21,26.8415384615385,100,20,5,Male,10,1,25,5,6,1,A,0,1,2,2,2,16,16,20,23,7,0,5,7,4,1,4,11,9,2,11,4,2,6,2,22,5,5,0,180,8,3,1,6,14,1,8,6,14,1,14,6,0,1,6,1,22,320,16,1,NA,3 0,18,19,Male,20,5,estado de mexico,texcoco,nuevo ideal,guatimapo,DIMA,ingeniero mecanico agricola,6,1,1112,NA,NA,Catholic,6,8,4,No,123456,1,5,1,3,1,1,1,5,3,5,2,1,3,1,1,2,3,4,5,4,1,4,5,3,2,5,5,4,5,5,1,1,6,2,3,4,3,3,3,1,1,5,5,1,1,5,5,1,5,1,1,1,1,1,1,1,5,5,1,5,5,1,1,1,105000,5,0,0,0,7,7,5,1
001025006,mexico_chapingo,18H 11M 0S,19H 17M 0S,2022-06-21,26.8415384615385,100,20,5,Male,10,1,25,6,5,NA,A,0,1,1,1,2,16,20,12,23,3,1,8,4,4,4,2,6,6,4,10,7,4,11,0,0,8,7,2,300,2,3,7,1,3,0,5,3,8,NA,3,6,0,1,6,1,0,100,5,1,NA,5 0,18,19,Male,18,5,texcoco,cooperativa,metepec,acocul,fitotecnia,ingeniero agronomo especialista en fitotecnia,3,1,12,0,0,Catholic,6,7,4,No,136,4,3,2,3,2,3,4,2,3,2,3,1,4,5,2,2,3,3,4,3,2,2,3,3,2,4,3,4,4,3,2,2,6,2,3,3,2,2,3,1,2,4,4,1,1,4,4,1,4,1,1,1,1,1,3,3,4,2,2,5,2,2,1,2,10000,2,2,2,0,8,7,6,3
001025009,mexico_chapingo,18H 11M 0S,19H 17M 0S,2022-06-21,26.8415384615385,100,20,5,Male,10,1,25,9,13,1,A,0,1,2,1,2,16,16,16,23,8,0,4,9,1,2,2,11,8,3,11,7,6,13,0,0,8,8,2,960,9,1,2,5,14,1,8,6,14,1,14,3,0,8,6,1,0,100,5,1,NA,16 0,18,19,Male,26,7,texcoco,texcoco,NA,NA,NA,NA,5,2,178,1,1,Catholic,6,7,1,No,NA,3,4,1,2,2,3,2,2,2,3,1,2,3,2,1,2,2,2,4,3,2,4,4,2,2,4,4,5,4,4,3,4,6,1,2,2,2,2,2,2,3,5,4,2,2,4,2,2,4,2,2,2,2,3,2,3,4,3,4,4,3,3,3,3,70000,3,0,1,0,8,8,7,3
001025013,mexico_chapingo,18H 11M 0S,19H 17M 0S,2022-06-21,26.8415384615385,100,20,5,Female,10,1,25,13,9,NA,A,0,1,1,1,2,16,20,16,23,6,1,5,7,2,3,6,13,9,5,14,9,2,11,2,26,9,10,0,240,7,3,2,3,10,1,5,3,8,2,20,3,0,8,6,1,26,360,18,1,NA,4 0,18,19,Female,25,7,texcoco,tocuila,veracruz,veracruz,CIESTAAM,DGPEA,5,2,1268,1,1,Protestant/Christian,6,5,1,Yes,23,3,4,3,1,2,4,1,4,1,4,5,2,3,2,2,2,2,2,4,4,1,4,3,1,1,5,5,5,5,5,5,4,6,1,2,2,1,1,2,3,2,5,5,2,1,4,5,1,5,1,1,1,1,3,4,2,4,1,3,5,3,1,1,2,NA,3,1,1,0,9,9,9,1
001027001,mexico_chapingo,12H 12M 0S,13H 30M 0S,2022-06-22,32.2428571428571,100,20,5,Female,10,1,27,1,2,NA,A,1,1,1,2,2,16,20,16,23,4,1,7,7,4,1,2,9,4,5,9,6,6,12,0,0,9,9,3,120,7,4,1,5,2,0,7,5,2,NA,2,2,1,14.5,5,1,4,140,7,1,NA,2 0,12,13,Female,19,7,texcoco,NA,san agustin laxicha oaxaca,NA,DICIFO,ingenieria forestal,2,1,1,0,0,Catholic,26,5,2,Yes,123456,4,4,2,3,2,4,4,4,2,2,2,2,2,3,4,3,2,2,5,3,2,4,3,2,3,3,3,4,5,5,3,1,5,2,3,4,3,3,3,3,3,5,4,2,1,5,4,1,5,1,1,1,1,1,1,4,4,1,4,5,3,3,3,1,15000,4,2,0,0,9,9,9,6
001027002,mexico_chapingo,12H 12M 0S,13H 30M 0S,2022-06-22,32.2428571428571,100,20,5,Female,10,1,27,2,1,NA,A,1,1,2,2,2,16,16,16,23,6,2,4,6,3,3,6,12,5,4,9,7,2,9,2,24,9,10,0,240,3,4,5,5,8,0,7,5,2,NA,8,2,1,14.5,5,1,6,160,8,1,NA,4 0,12,13,Female,19,5,texcoco,cooperativa,chapulco,tehuacan,suelos,ingenieria en recursos naturales renovables,5,1,12,0,0,Catholic,6,4,1,No,123456,5,4,5,3,3,4,5,3,3,1,4,2,1,2,4,3,2,3,3,4,2,3,3,2,2,3,NA,3,5,5,3,3,5,1,2,3,2,2,2,2,2,3,4,1,1,5,3,1,5,1,2,1,1,2,3,3,5,2,3,5,2,1,3,1,45000,3,3,0,1,8,9,7,3
001027003,mexico_chapingo,12H 12M 0S,13H 30M 0S,2022-06-22,32.2428571428571,100,20,5,Female,10,1,27,3,4,8,A,1,1,2,1,2,16,20,12,23,4,4,4,5,2,5,3,8,6,4,10,7,3,10,0,0,7,7,1,120,4,3,5,5,9,1,4,5,9,1,9,2,1,14.5,5,1,4,140,7,1,NA,2 0,12,13,Female,22,5,NA,NA,NA,NA,fitotecnia,horticultura protegida,5,1,246,0,0,Non-religious,6,7,NA,No,236,3,4,4,5,2,2,1,4,2,1,1,2,3,4,2,3,2,3,4,3,3,4,4,2,2,4,NA,3,5,4,2,2,5,2,4,4,NA,3,3,3,3,4,4,3,1,5,5,1,5,1,4,1,1,3,4,3,4,2,3,5,4,3,3,3,60000,3,0,0,0,7,7,7,1
001027004,mexico_chapingo,12H 12M 0S,13H 30M 0S,2022-06-22,32.2428571428571,100,20,5,Female,10,1,27,4,3,NA,A,1,1,2,2,2,16,20,20,23,7,1,4,7,1,4,3,10,8,5,13,5,3,8,2,20,9,10,8,1140,6,2,4,6,12,0,7,5,2,NA,12,1,1,11,5,1,7,170,8.5,1,NA,19 0,12,13,Female,20,5,texcoco,jardines,cordoba,U.H. san jose de abajo,DICEA,tronco comun,4,1,NA,0,0,Non-religious,6,5,1,No,12356,5,5,2,4,3,4,1,4,3,4,1,2,4,5,2,3,4,4,3,4,4,3,2,3,1,4,4,5,4,4,4,3,5,1,3,2,2,2,3,3,3,2,4,4,1,5,5,1,5,1,1,1,1,1,4,3,4,2,3,5,3,3,1,2,55000,3,2,1,1,10,9,8,7
001027005,mexico_chapingo,12H 12M 0S,13H 30M 0S,2022-06-22,32.2428571428571,100,20,5,Male,10,1,27,5,6,11,A,1,1,2,2,2,16,16,16,23,5,2,5,6,2,4,6,12,4,6,10,6,6,12,1,12,9,10,0,480,2,6,4,4,6,1,2,4,6,1,6,6,1,30,5,1,5,150,7.5,1,NA,8 0,12,13,Male,24,7,texcoco,texcoco,villa de allende estado de mexico,sa jeronimo totoltepec,ciestaam,docpea,5,1,1,0,0,Catholic,6,8,1,Yes,36,5,5,2,2,2,3,2,4,2,4,4,2,2,1,1,2,2,3,4,4,2,4,4,1,2,5,4,5,4,4,3,4,5,2,2,3,1,1,2,1,3,5,4,3,1,4,5,1,4,1,1,1,1,4,3,4,5,2,4,5,3,1,1,2,50000,4,1,0,0,9,9,10,1
001027006,mexico_chapingo,12H 12M 0S,13H 30M 0S,2022-06-22,32.2428571428571,100,20,5,Female,10,1,27,6,5,NA,A,1,1,1,2,2,16,20,16,23,6,1,5,6,1,5,6,12,7,4,11,6,6,12,1,12,7,6,8,180,5,2,5,3,8,0,7,5,2,NA,8,2,1,14.5,5,1,6,160,8,1,NA,3 0,12,13,Female,20,5,texcoco,NA,tehuacan,tehuacan,suelos,recursos naturales renovables,4,1,246,0,0,Catholic,6,5,NA,No,36,4,3,4,4,3,3,4,3,2,3,2,4,1,3,2,4,4,5,3,2,3,3,2,3,4,4,NA,3,4,3,3,3,5,2,4,4,2,3,4,3,2,4,5,4,1,4,2,1,5,1,1,1,1,2,4,4,3,2,3,5,3,3,2,3,60000,2,2,0,0,6,7,5,8
001027007,mexico_chapingo,12H 12M 0S,13H 30M 0S,2022-06-22,32.2428571428571,100,20,5,Female,10,1,27,7,8,12,A,1,1,2,1,1,16,16,16,21,3,0,9,7,1,4,6,13,8,4,12,6,5,11,2,26,8,6,2,240,3,5,4,3,6,1,3,3,6,1,6,2,1,14.5,5,1,3,130,6.5,1,NA,4 0,12,13,Female,20,5,NA,NA,NA,NA,suelos,recursos naturales renovables,5,1,12,NA,NA,Catholic,6,7,1,No,6,5,2,5,5,3,4,5,2,4,5,1,2,5,5,1,3,3,2,4,2,2,4,4,2,1,4,NA,5,4,5,3,4,5,1,2,2,1,1,2,2,5,5,5,4,1,5,4,1,5,1,1,1,1,1,1,1,5,3,5,5,2,3,2,2,NA,4,1,1,0,8,8,6,3
001027008,mexico_chapingo,12H 12M 0S,13H 30M 0S,2022-06-22,32.2428571428571,100,20,5,Male,10,1,27,8,7,3,A,1,1,1,1,2,16,20,16,18,4,0,8,6,2,4,5,11,6,5,11,7,6,13,0,0,10,10,10,300,3,6,3,6,9,1,3,6,9,1,9,2,1,14.5,5,1,4,140,7,1,NA,5 0,12,13,Male,20,5,texcoco,texcoco,santiago yosonova,santiago yosonova,DIMA,mecatronica,4,1,246,0,0,Catholic,6,4,3,No,4,4,5,1,2,2,2,3,3,1,1,3,1,1,3,1,3,4,4,2,2,3,3,2,3,4,4,NA,3,5,5,3,4,5,2,3,3,3,2,2,1,1,5,3,3,1,4,5,3,4,2,1,1,1,3,4,2,2,3,3,5,1,3,4,2,NA,3,1,0,1,2,3,4,1
001027009,mexico_chapingo,12H 12M 0S,13H 30M 0S,2022-06-22,32.2428571428571,100,20,5,Male,10,1,27,9,10,NA,A,1,1,2,2,2,16,20,16,23,7,0,5,7,3,2,6,13,9,4,13,8,4,12,2,26,8,7,2,1042,7,5,0,4,11,0,7,5,2,NA,11,4,1,21.5,5,1,7,170,8.5,1,NA,17 22,12,13,Male,20,5,rodeo,rodeo,rodeo,rodeo,DICEA,LAN,5,1,246,0,0,Non-religious,6,5,1,No,46,2,2,1,5,1,3,2,4,2,5,1,1,4,3,4,3,2,4,5,4,2,5,4,2,1,5,4,5,4,4,3,2,5,2,3,2,2,2,2,3,2,4,5,2,1,4,4,1,5,1,1,1,1,3,2,3,2,2,5,5,3,1,1,3,35000,4,0,0,0,9,8,6,8
001027010,mexico_chapingo,12H 12M 0S,13H 30M 0S,2022-06-22,32.2428571428571,100,20,5,Male,10,1,27,10,9,NA,A,1,1,2,2,2,16,20,16,23,7,0,5,8,0,4,4,12,6,6,12,7,6,13,0,0,9,10,1,60,7,2,3,4,11,0,7,5,2,NA,11,1,1,11,5,1,7,170,8.5,1,NA,1 0,12,13,Male,19,5,NA,NA,NA,NA,suelos,IRNR,5,1,11,0,0,Catholic,6,6,1,No,1235,5,1,2,4,2,3,4,5,2,2,1,3,2,2,1,2,2,3,5,5,2,4,4,3,1,2,NA,4,3,4,3,3,5,2,4,4,4,3,3,3,2,4,5,1,1,4,4,1,5,1,1,1,1,2,2,3,4,1,4,5,3,1,1,1,35000,4,1,0,0,9,10,10,1
001027011,mexico_chapingo,12H 12M 0S,13H 30M 0S,2022-06-22,32.2428571428571,100,20,5,Male,10,1,27,11,12,5,A,1,1,2,2,2,16,20,20,23,6,0,6,8,0,4,5,13,8,3,11,7,3,10,2,26,5,1,0,840,3,5,4,6,9,1,3,6,9,1,9,1,1,11,5,1,6,160,8,1,NA,14 0,12,13,Male,29,5,chicoloapan,arboledas,NA,NA,NA,NA,4,1,246,0,0,Catholic,6,4,3,No,246,5,2,1,5,4,3,2,1,5,5,1,4,1,5,1,4,3,2,4,4,2,2,3,3,2,3,4,4,4,4,4,2,5,3,3,4,2,2,2,3,4,5,5,4,1,5,5,1,5,1,1,1,1,3,1,4,4,4,5,5,3,3,4,2,100000,4,1,1,1,9,6,3,1
001027012,mexico_chapingo,12H 12M 0S,13H 30M 0S,2022-06-22,32.2428571428571,100,20,5,Male,10,1,27,12,11,7,A,1,1,2,1,2,16,20,12,23,6,0,6,7,3,2,3,10,5,6,11,8,5,13,0,0,7,8,6,120,9,3,0,2,11,1,9,2,11,1,11,5,1,26,5,1,6,160,8,1,NA,2 0,12,13,Male,18,5,texcoco,salitreria,tepeaca,san cristobal hidalgo,irrigacion,irrigacion,8,1,246,0,0,Non-religious,6,7,1,No,56,4,2,4,3,2,3,4,5,3,2,1,1,4,5,3,1,4,3,4,2,3,4,3,2,4,4,NA,3,3,5,3,3,5,1,2,4,2,1,2,4,3,5,5,4,1,4,3,1,5,1,4,1,1,1,3,1,4,2,4,5,2,2,1,2,100000,4,2,0,0,8,6,5,2
001027013,mexico_chapingo,12H 12M 0S,13H 30M 0S,2022-06-22,32.2428571428571,100,20,5,Male,10,1,27,13,14,NA,A,1,1,1,1,1,12,16,16,16,6,0,6,6,0,6,2,8,6,3,18,5,5,10,0,0,7,7,5,180,7,2,3,4,11,0,7,5,2,NA,11,1,1,11,5,1,6,160,8,1,NA,3 0,12,13,Male,21,5,texcoco,estado de mexico,puebla,puebla,zotecnia,zootecnia,4,1,12,0,0,Non-religious,6,8,1,No,16,2,4,4,5,5,3,2,3,3,4,1,4,1,4,1,3,4,4,3,4,3,4,3,4,4,4,NA,4,4,5,3,3,5,1,3,4,3,2,2,4,4,4,4,4,1,5,5,2,5,2,3,1,1,3,4,4,4,4,3,5,4,3,4,1,70000,2,2,0,0,8,7,7,7
001027014,mexico_chapingo,12H 12M 0S,13H 30M 0S,2022-06-22,32.2428571428571,100,20,5,Male,10,1,27,14,13,NA,A,1,2,1,1,1,16,16,16,16,3,0,9,5,1,6,5,10,6,3,9,6,2,8,2,20,8,7,4,180,3,3,6,3,6,0,7,5,2,NA,6,1,1,11,5,1,3,130,6.5,1,NA,3 0,12,13,Male,21,5,texcoco,salitreria,ocotepec,gadalupe victoria,DICEA,licenciatura en comercio internacional,3,1,26,0,0,Catholic,6,7,2,No,46,3,4,4,3,2,2,3,3,2,3,1,2,1,3,2,3,3,3,4,4,2,3,4,2,2,4,4,4,4,4,2,2,5,1,2,3,4,3,3,1,1,4,4,2,1,5,3,1,4,1,1,1,1,2,3,3,2,3,4,5,4,2,5,2,30000,4,0,0,0,7,7,5,4
001027015,mexico_chapingo,12H 12M 0S,13H 30M 0S,2022-06-22,32.2428571428571,100,20,5,Female,10,1,27,15,16,NA,A,1,1,2,2,2,16,16,16,23,8,0,4,7,1,4,1,8,5,4,9,7,3,10,0,0,8,9,1,120,8,1,3,4,12,0,7,5,2,NA,12,1,1,11,5,1,8,180,9,1,NA,2 0,12,13,Female,25,7,texcoco,cooperativa,dolores hidalgo,san jose de badillo,parasitologia agricola,parasitologia agricola,2,1,6,0,0,Catholic,6,8,1,No,NA,4,4,4,4,3,2,4,4,2,3,4,2,1,3,1,3,2,3,4,4,3,4,3,2,2,4,4,5,3,4,3,4,5,1,2,3,2,2,2,1,1,5,4,2,1,4,5,2,4,1,2,1,1,3,3,3,4,3,4,5,4,3,4,2,100000,3,1,0,1,9,9,9,4
001027016,mexico_chapingo,12H 12M 0S,13H 30M 0S,2022-06-22,32.2428571428571,100,20,5,Female,10,1,27,16,15,NA,A,1,1,1,2,2,16,20,16,23,6,1,5,7,3,2,3,10,8,2,10,7,1,8,2,20,9,9,0,60,6,5,1,5,11,0,7,5,2,NA,11,2,1,14.5,5,1,6,160,8,1,NA,1 0,12,13,Female,18,5,NA,NA,NA,NA,irrigacion,irrigacion,5,1,246,0,0,Non-religious,6,5,3,Yes,236,3,4,3,4,1,4,5,5,2,4,1,5,2,3,1,4,4,5,2,4,4,5,2,4,5,4,NA,5,4,5,2,2,5,1,3,4,3,2,2,2,1,1,4,1,1,5,5,1,5,1,1,1,1,1,5,3,5,2,4,5,3,4,2,2,70000,3,2,1,1,7,9,7,2
001022001,mexico_chapingo,12H 10M 0S,13H 18M 0S,2022-06-21,31.1417910447761,100,20,5,Female,5,1,22,1,2,3,B,1,1,2,1,2,16,20,12,23,8,2,2,8,4,0,5,13,9,6,15,8,5,13,1,13,7,6,3,240,7,5,0,2,9,1,7,2,9,1,9,6,1,30,6,1,13,165,8.25,1,NA,4 0,12,13,Female,21,5,chicoloapan,ara 3,chicoloapan,ara 3,suelos,IRNR,3,1,26,0,0,Non-religious,6,4,2,No,26,4,3,3,4,4,2,3,2,5,4,1,3,2,3,1,3,3,4,2,3,3,4,3,3,4,2,3,3,3,3,2,3,6,1,3,2,4,1,2,3,4,5,5,4,1,3,3,1,4,1,1,1,1,1,5,2,3,3,2,5,3,3,2,2,100000,2,3,0,0,7,7,6,3
001022002,mexico_chapingo,12H 10M 0S,13H 18M 0S,2022-06-21,31.1417910447761,100,20,5,Female,5,1,22,2,1,NA,B,1,1,2,2,2,16,20,20,23,7,4,1,8,3,1,5,13,7,4,11,8,5,13,1,13,7,7,4,720,8,3,1,1,9,1,8,1,9,1,9,3,1,18,6,1,13,165,8.25,1,NA,12 0,12,13,Female,21,5,texcoco,santa martha,texcoco,santa martha,suelos,IRNR,NA,1,246,0,0,Catholic,6,6,1,No,2345,3,4,4,2,2,4,2,2,4,5,3,2,1,4,1,3,3,4,3,4,4,3,3,4,5,4,3,4,4,4,2,2,6,1,4,3,2,2,2,1,2,5,3,2,1,4,4,1,4,2,3,1,1,3,4,3,2,4,4,5,3,4,3,1,10000,3,3,0,0,7,6,8,6
001022003,mexico_chapingo,12H 10M 0S,13H 18M 0S,2022-06-21,31.1417910447761,100,20,5,Male,5,1,22,3,4,1,B,1,1,2,1,2,16,20,16,23,6,1,5,6,4,2,3,9,6,2,8,7,1,8,2,18,10,9,3,720,9,1,2,1,10,1,9,1,10,1,10,1,1,11,6,1,18,190,9.5,1,NA,12 0,12,13,Male,19,4,texcoco,cooperativa,cuahutepec harinas,primera de santa anna,DICEA,LAN,5,1,246,0,0,Catholic,6,8,1,No,12356,4,2,1,2,1,4,3,3,2,3,2,2,3,2,2,3,2,3,4,4,3,4,3,3,2,5,4,4,5,5,3,2,6,1,2,3,2,2,2,3,2,5,5,2,1,5,5,1,4,2,1,1,1,2,3,2,3,1,3,5,4,2,1,3,45000,3,0,0,0,9,9,7,3
001022004,mexico_chapingo,12H 10M 0S,13H 18M 0S,2022-06-21,31.1417910447761,100,20,5,Male,5,1,22,4,3,NA,B,1,1,2,1,2,16,20,16,23,5,1,6,7,2,3,1,8,10,5,15,6,3,9,0,0,5,7,4,720,9,1,2,1,10,1,8,1,9,2,20,4,1,21.5,6,1,0,100,5,1,NA,12 0,12,13,Male,16,4,texcoco,san miguel tlaixpan,texcoco,san miguel tlaixipan,preparatoria,NA,4,NA,246,0,0,Catholic,46,5,3,No,1234,2,3,2,4,3,2,2,4,3,5,2,4,1,4,1,3,4,4,3,NA,3,3,2,3,4,3,2,3,4,4,2,1,6,2,4,4,4,4,4,4,3,5,4,3,1,3,NA,1,5,2,2,1,1,3,2,3,2,4,4,5,4,4,3,1,210000,3,1,1,1,4,5,5,5
001022005,mexico_chapingo,12H 10M 0S,13H 18M 0S,2022-06-21,31.1417910447761,100,20,5,Female,5,1,22,5,6,7,B,1,1,2,1,2,16,16,12,18,5,4,3,5,5,2,5,10,8,3,11,6,4,10,1,10,8,9,4,60,5,4,3,2,7,1,5,2,7,1,7,2,1,14.5,6,1,10,150,7.5,1,NA,1 0,12,13,Female,19,5,ixtapaluca,san buenaventura,ixtapaluca,san buenaventura,suelos,ingenieria en recursos naturales renovables,5,1,246,0,0,Catholic,6,7,1,No,36,3,3,3,5,4,2,3,4,3,5,2,4,3,3,4,3,4,3,3,2,3,4,3,2,4,4,2,3,4,4,3,2,6,2,3,3,3,2,2,1,2,5,4,3,1,4,4,5,5,1,1,1,1,3,3,4,4,3,3,5,3,2,3,1,100000,3,3,0,3,7,8,7,4
001022006,mexico_chapingo,12H 10M 0S,13H 18M 0S,2022-06-21,31.1417910447761,100,20,5,Male,5,1,22,6,5,NA,B,1,1,1,2,1,16,20,20,21,8,0,4,6,2,4,4,10,7,4,11,5,5,10,1,10,8,9,3,180,6,5,1,3,9,0,8,1,9,NA,9,3,1,18,6,1,10,150,7.5,1,NA,3 0,12,13,Male,19,5,atenco,santa rosa,atenco,santa rosa,suelos,IRNR,7,1,246,0,0,Non-religious,6,5,3,Yes,36,4,4,3,3,3,3,3,4,2,3,1,3,2,3,3,2,2,3,3,2,3,3,3,2,3,4,4,4,4,4,3,3,6,1,3,3,2,2,2,3,3,3,5,3,1,4,4,1,5,1,1,1,1,4,4,3,4,2,2,5,3,2,3,3,NA,2,7,0,0,8,8,8,4
001022007,mexico_chapingo,12H 10M 0S,13H 18M 0S,2022-06-21,31.1417910447761,100,20,5,Female,5,1,22,7,9,5,B,1,2,1,2,1,16,20,20,21,5,0,7,6,1,5,3,9,5,4,9,5,5,10,0,0,7,10,5,120,6,1,5,5,11,1,6,5,11,1,11,3,1,18,6,1,0,100,5,1,NA,2 0,12,13,Female,16,4,texcoco,san miguel tlaixpan,texcoco,san miguel tlaixpan,preparatoria,NA,5,1,24612,0,0,Catholic,6,8,3,No,3,5,4,2,3,2,5,5,5,2,4,1,3,3,3,1,3,4,3,4,3,3,3,3,3,2,4,NA,5,3,5,2,3,6,1,2,2,1,1,2,3,1,5,5,1,1,4,3,1,5,1,1,1,1,3,3,2,3,1,5,5,3,1,2,3,5000,5,1,1,0,9,9,8,8
001022009,mexico_chapingo,12H 10M 0S,13H 18M 0S,2022-06-21,31.1417910447761,100,20,5,Female,5,1,22,9,7,NA,B,1,1,2,1,2,12,16,12,18,3,0,9,5,0,7,5,10,5,4,9,6,3,9,2,20,9,9,0,720,3,0,9,6,9,0,8,1,9,NA,9,2,1,14.5,6,1,20,200,10,1,NA,12 0,12,13,Female,18,5,NA,NA,"cuetzalan del progreso, puebla",santiago yacuintlapan,preparatoria agricola,preparatoria agricola,3,1,112,0,0,Non-religious,6,7,1,No,1256,2,3,4,3,3,2,3,4,3,5,4,3,2,3,2,4,3,4,3,4,3,4,4,3,3,4,NA,3,4,5,3,4,6,2,4,3,2,1,2,2,3,5,3,3,1,5,5,3,4,1,4,1,1,NA,3,4,5,3,4,5,3,4,3,1,50000,3,1,0,0,8,10,9,1
001022010,mexico_chapingo,12H 10M 0S,13H 18M 0S,2022-06-21,31.1417910447761,100,20,5,Male,5,1,22,10,11,NA,B,1,1,2,1,2,16,16,16,18,5,0,7,7,1,4,3,10,5,4,9,8,4,12,0,0,5,10,5,900,8,2,2,2,10,0,8,1,9,NA,10,6,1,30,6,1,0,100,5,1,NA,15 0,12,13,Male,24,5,texcoco,NA,coscomatepec,NA,DICEA,comercio internacional,3,1,11,0,0,Catholic,6,5,1,No,346,1,5,3,2,1,1,1,2,5,1,3,4,3,5,3,3,4,4,2,3,4,3,3,2,3,4,4,5,5,4,3,1,6,1,2,4,3,3,3,1,5,5,5,2,1,5,2,1,5,1,1,1,1,1,1,5,4,3,4,5,1,3,1,2,NA,4,1,1,1,9,10,9,3
001022011,mexico_chapingo,12H 10M 0S,13H 18M 0S,2022-06-21,31.1417910447761,100,20,5,Female,5,1,22,11,10,14,B,1,1,1,1,1,16,20,16,21,6,1,5,8,0,4,4,12,8,5,13,7,3,10,2,24,10,8,0,300,7,1,4,4,11,1,7,4,11,1,11,4,1,21.5,6,1,24,220,11,1,NA,5 0,12,13,Female,21,5,texcoco,texcoco,atepec,san juan atepec,DIA,industrias,5,1,12,2,0,Catholic,6,4,3,No,12356,5,5,1,2,1,5,5,4,5,3,1,1,4,5,5,4,5,4,3,3,4,2,3,3,4,4,4,3,2,4,3,3,6,1,4,3,3,2,3,2,4,5,4,3,1,5,5,1,5,1,5,1,1,5,4,4,3,4,2,5,3,1,1,1,NA,2,3,0,0,7,9,9,1
001022013,mexico_chapingo,12H 10M 0S,13H 18M 0S,2022-06-21,31.1417910447761,100,20,5,Female,5,1,22,13,14,NA,B,1,1,1,1,1,16,16,12,21,3,0,9,6,1,5,1,7,8,4,12,8,4,12,0,0,5,8,5,1020,3,2,7,6,9,0,8,1,9,NA,9,4,1,21.5,6,1,0,100,5,1,NA,17 0,12,13,Female,19,4,texcoco,cooperativa,yurecuaro,monteleon,preparatoria agricola,NA,5,1,NA,0,0,Non-religious,6,4,1,No,12356,3,2,5,3,3,5,2,2,5,4,1,4,1,5,1,2,4,5,4,3,1,3,3,4,2,4,4,2,5,3,3,2,6,3,4,4,3,3,4,3,5,5,4,2,1,4,5,1,5,1,4,1,1,2,3,4,4,2,5,5,3,4,1,2,100000,4,1,1,0,5,6,8,8
001022014,mexico_chapingo,12H 10M 0S,13H 18M 0S,2022-06-21,31.1417910447761,100,20,5,Female,5,1,22,14,13,11,B,1,1,1,2,2,16,16,20,18,5,3,4,8,1,3,4,12,6,3,9,6,1,7,2,24,9,9,0,120,9,1,2,3,12,1,9,3,12,1,12,5,1,26,6,1,24,220,11,1,NA,2 0,12,13,Female,21,6,texcoco,san mateo huexotla,oaxaca,mihuatlan,DICEA,comercio internacional,4,1,246,0,0,Catholic,6,3,3,No,6,4,5,5,3,4,3,3,2,3,2,1,2,2,2,2,2,2,3,5,4,2,5,4,4,4,4,3,4,5,4,3,2,6,1,2,2,2,2,3,2,2,5,5,2,1,4,3,3,5,1,1,1,1,3,4,1,2,1,1,5,3,4,NA,2,10000,4,2,1,1,2,1,8,2
001022015,mexico_chapingo,12H 10M 0S,13H 18M 0S,2022-06-21,31.1417910447761,100,20,5,Male,5,1,22,15,16,NA,B,1,1,2,1,2,16,20,12,23,7,0,5,6,2,4,3,9,4,2,6,7,2,9,1,9,8,7,2,720,7,4,1,2,9,0,8,1,9,NA,9,2,1,14.5,6,1,9,145,7.25,1,NA,12 0,12,13,Male,20,4,texcoco,la cabaña,soyaniquilpan de juarez,san juan daxthi,DIMA,mecanica agricola,3,1,46,0,0,Catholic,6,6,4,No,2,5,4,3,4,4,2,3,2,4,3,2,1,1,2,1,2,3,2,2,2,3,2,3,2,3,3,3,4,4,4,2,4,6,1,2,3,1,1,1,2,3,5,4,4,1,4,4,1,5,1,1,1,1,4,4,2,5,3,3,5,2,2,1,3,1000000,2,1,1,0,8,9,7,2
001022016,mexico_chapingo,12H 10M 0S,13H 18M 0S,2022-06-21,31.1417910447761,100,20,5,Female,5,1,22,16,15,NA,B,1,1,2,2,2,16,20,20,23,5,1,6,7,2,3,2,9,8,4,12,6,3,9,1,9,10,9,2,720,4,2,6,3,7,0,8,1,9,NA,7,6,1,30,6,1,9,145,7.25,1,NA,12 0,12,13,Female,21,5,texcoco,estado de mexico,pichucalco,chiapas,DIMA,mecatronica,5,1,NA,0,0,Catholic,6,5,1,No,6,5,4,3,5,3,5,2,3,3,3,2,3,2,3,2,3,3,5,3,4,3,4,3,3,4,5,3,4,3,5,2,3,6,1,3,2,2,2,2,3,3,4,5,2,1,5,5,1,5,1,1,1,1,3,3,3,2,2,4,5,2,3,3,2,12000,3,1,1,1,9,8,8,2
001023001,mexico_chapingo,14H 12M 0S,15H 18M 0S,2022-06-21,32.3,100,20,5,Male,5,1,23,1,2,14,B,1,1,1,1,1,16,16,12,21,5,2,5,7,3,2,2,9,8,1,9,7,1,8,2,18,9,10,0,180,8,4,0,5,13,1,8,5,13,1,13,1,1,11,1,1,1,105,5.25,1,NA,3 0,14,15,Male,21,5,texcoco,texcoco,texcoco,texcoco,DICEA,INGEA,3,1,26,0,0,NA,NA,NA,NA,NA,NA,NA,NA,2,3,3,4,3,4,2,3,1,2,1,3,2,3,2,3,4,4,2,4,4,3,2,4,4,4,5,5,3,3,1,1,2,2,2,2,2,3,2,4,4,2,1,5,5,1,4,1,2,1,1,3,3,3,4,1,4,5,3,1,4,2,NA,3,3,0,3,9,9,9,8
001023002,mexico_chapingo,14H 12M 0S,15H 18M 0S,2022-06-21,32.3,100,20,5,Female,5,1,23,2,1,NA,B,1,1,1,2,2,16,16,20,18,4,0,8,7,1,4,1,8,5,3,8,7,2,9,0,0,5,7,4,30,8,1,3,6,14,0,8,6,14,NA,14,2,1,14.5,1,1,1,105,5.25,1,NA,0 30,14,15,Female,22,5,texcoco,NA,rodeo,rodeo,DICEA,INGEA,2,1,12,0,0,Non-religious,6,4,3,No,NA,3,2,5,5,5,4,3,2,4,4,1,4,1,5,5,4,5,4,2,2,4,3,2,4,5,3,1,3,4,3,4,2,1,1,4,2,2,1,2,3,2,1,5,3,1,4,5,1,5,1,2,1,1,3,3,3,5,1,3,5,3,1,4,2,100000,3,5,3,3,8,9,5,3
001023003,mexico_chapingo,14H 12M 0S,15H 18M 0S,2022-06-21,32.3,100,20,5,Male,5,1,23,3,5,6,B,1,1,2,1,2,16,16,12,23,8,0,4,7,1,4,6,13,8,3,11,5,3,8,2,26,9,8,3,180,7,3,2,5,12,1,7,5,12,1,12,2,1,14.5,1,1,1,105,5.25,1,NA,3 0,14,15,Male,22,5,texcoco,salitreria,tepeji de rodriguez,huejonapan,irrigacion,ingeniero en irrigacion,8,1,2467,0,0,Non-religious,6,2,3,No,236,3,3,1,4,1,2,4,2,3,2,1,1,1,3,2,3,3,4,4,2,3,3,3,4,4,4,NA,3,5,4,2,2,1,1,4,2,4,2,2,3,4,5,5,3,1,4,4,2,4,2,3,1,1,2,3,3,4,4,3,5,3,4,1,2,NA,3,0,0,0,7,8,7,7
001023005,mexico_chapingo,14H 12M 0S,15H 18M 0S,2022-06-21,32.3,100,20,5,Female,5,1,23,5,3,NA,B,1,1,1,2,2,16,20,20,23,6,1,5,5,2,5,3,8,6,4,10,7,6,13,0,0,5,4,8,20,6,2,4,4,10,0,8,6,14,NA,10,2,1,14.5,1,1,1,105,5.25,1,NA,0 20,14,15,Female,20,5,texcoco,texcoco,totutla,mata oscura,DICEA,administracion y negocios,3,1,24,NA,NA,Catholic,6,4,4,No,2,2,4,3,4,3,1,3,3,4,5,2,3,1,4,2,3,2,3,3,2,3,3,1,3,4,4,NA,3,4,4,3,2,1,1,3,3,3,3,3,3,4,5,4,3,1,5,3,1,5,1,1,1,1,2,3,3,5,5,2,5,3,5,2,2,20000,2,0,0,0,5,5,5,7
001023006,mexico_chapingo,14H 12M 0S,15H 18M 0S,2022-06-21,32.3,100,20,5,Male,5,1,23,6,9,3,B,1,1,2,2,2,16,20,20,23,5,0,7,6,2,4,3,9,6,2,8,9,3,12,0,0,8,8,1,30,6,5,1,5,11,1,6,5,11,1,11,3,1,18,1,1,1,105,5.25,1,NA,0 30,14,15,Male,23,5,texcoco,el carmen,texcoco,el carmen,DICEA,INGEA,5,1,26,1,0,Non-religious,6,8,2,No,2356,4,4,1,3,2,4,3,1,1,2,1,2,2,1,1,2,1,3,4,4,2,5,4,2,2,4,4,4,4,5,3,3,1,1,2,3,2,1,2,3,3,4,5,3,1,5,3,1,5,1,1,1,1,2,2,4,5,3,5,5,3,3,3,1,80000,4,4,4,0,9,9,8,3
001023009,mexico_chapingo,14H 12M 0S,15H 18M 0S,2022-06-21,32.3,100,20,5,Male,5,1,23,9,6,NA,B,1,1,2,1,2,16,20,12,23,7,0,5,9,3,0,3,12,7,4,11,6,3,9,2,24,8,6,0,300,7,4,1,4,11,0,8,6,14,NA,11,5,1,26,1,1,1,105,5.25,1,NA,5 0,14,15,Male,20,5,texcoco,texcoco,"nuevo ideal, durango","nuevo ideal, durango",DIMA,mecanica agricola,5,1,NA,0,0,Catholic,6,5,3,No,236,4,3,2,4,4,3,5,3,4,5,1,3,4,5,1,2,4,3,3,3,4,3,2,3,3,4,4,4,3,4,3,2,1,2,3,3,4,3,3,2,4,3,4,4,1,3,5,1,5,1,3,1,1,3,3,3,3,4,3,5,2,3,2,1,100000,3,4,1,3,6,5,5,1
001023010,mexico_chapingo,14H 12M 0S,15H 18M 0S,2022-06-21,32.3,100,20,5,Female,5,1,23,10,11,NA,B,1,1,2,2,1,16,20,20,21,6,0,6,5,2,5,1,6,7,2,9,6,5,11,0,0,5,4,6,240,7,1,4,4,11,0,8,6,14,NA,11,1,1,11,1,1,1,105,5.25,1,NA,4 0,14,15,Female,21,5,estado de mexico,texcoco,estado de mexico,cuautepec,DIMA,ingenieria mecanica agricola,4,1,NA,0,0,Non-religious,6,6,1,No,13456,3,3,4,5,4,3,3,3,2,2,1,3,2,NA,4,4,2,3,3,4,1,2,3,2,3,3,NA,3,2,4,3,2,1,1,4,2,2,1,1,2,3,2,5,2,1,1,3,NA,4,1,3,1,1,3,2,1,4,3,2,5,4,3,3,2,70000,3,2,0,0,6,5,4,6
001023011,mexico_chapingo,14H 12M 0S,15H 18M 0S,2022-06-21,32.3,100,20,5,Male,5,1,23,11,10,NA,B,1,1,2,1,2,16,20,12,18,5,0,7,6,5,1,5,11,5,5,10,5,1,6,2,22,8,8,2,120,4,3,5,3,7,0,8,6,14,NA,7,2,1,14.5,1,1,1,105,5.25,1,NA,2 0,14,15,Male,19,5,texcoco,salitreria,tlalixtaquilla,tlalixtaquilla,irrigacion,ingenieria en irrigacion,8,1,246,0,0,Non-religious,6,7,4,No,2356,1,4,1,4,4,2,2,3,3,5,1,3,3,4,1,4,4,4,3,2,4,3,2,4,3,4,4,3,4,4,3,3,1,2,4,4,3,4,3,2,4,4,3,4,1,3,3,1,4,2,1,1,1,3,2,1,4,4,3,5,3,4,3,1,NA,4,1,0,0,7,8,8,2
001023013,mexico_chapingo,14H 12M 0S,15H 18M 0S,2022-06-21,32.3,100,20,5,Male,5,1,23,13,14,NA,B,1,1,2,1,2,16,20,12,23,5,0,7,7,5,0,5,12,6,3,18,7,5,12,1,12,8,9,4,30,7,0,5,5,12,0,8,6,14,NA,12,4,1,21.5,1,1,1,105,5.25,1,NA,0 30,14,15,Male,23,5,texcoco,texcoco,zinacantepec,san sebastian,DIMA,mecanica agricola,7,1,NA,0,0,Catholic,6,7,2,No,6,4,3,2,3,2,3,4,5,2,2,3,1,2,3,3,3,4,3,4,4,3,5,3,2,1,4,4,5,5,5,3,3,1,2,2,2,2,2,3,1,2,4,5,3,1,5,5,1,4,1,2,1,1,2,4,4,4,2,3,5,3,2,1,2,17000,3,0,0,0,9,9,9,1
001023014,mexico_chapingo,14H 12M 0S,15H 18M 0S,2022-06-21,32.3,100,20,5,Female,5,1,23,14,13,1,B,1,1,2,2,2,16,20,20,23,4,2,6,7,2,3,5,12,5,2,7,7,5,12,1,12,5,8,0,40,6,6,0,4,10,1,6,4,10,1,10,3,1,18,1,1,1,105,5.25,1,NA,0 40,14,15,Female,22,5,texcoco,las cabañas,huauchinango,centro,DICEA,INGEA,3,1,26,0,0,Catholic,6,6,1,No,36,2,5,3,5,5,2,3,2,4,4,3,1,2,5,2,3,3,5,4,3,2,5,4,3,2,5,3,4,5,5,3,2,1,1,2,3,2,2,2,3,3,2,5,1,1,5,NA,1,5,1,1,1,1,2,4,5,3,2,3,5,3,5,5,2,1000000,3,4,2,2,8,9,8,1
001026001,mexico_chapingo,10H 10M 0S,11H 26M 0S,2022-06-22,30.4813333333333,100,20,5,Male,5,1,26,1,2,NA,B,1,1,2,1,2,16,16,12,23,5,1,6,7,0,5,4,11,12,6,18,7,3,10,2,22,5,6,2,180,5,1,6,6,11,0,5,6,11,NA,11,1,0,11,7,1,11,155,7.75,1,NA,3 0,10,11,Male,23,5,texcoco,texcoco,actopan,actopan,suelos,ingenieria en recursos naturales renovables,6,1,26,0,0,Non-religious,6,4,1,No,NA,4,4,4,4,2,3,4,3,3,2,1,1,2,3,4,3,3,3,4,3,4,3,4,2,3,4,4,4,3,5,3,4,7,1,1,1,2,2,1,1,2,4,4,2,1,5,5,1,5,1,1,1,1,1,3,4,3,1,4,5,3,3,2,2,NA,4,3,0,3,7,7,7,3
001026002,mexico_chapingo,10H 10M 0S,11H 26M 0S,2022-06-22,30.4813333333333,100,20,5,Female,5,1,26,2,1,5,B,1,1,1,2,2,16,20,20,23,5,2,5,7,1,4,3,10,5,4,9,7,4,11,0,0,8,7,3,90,7,3,2,2,9,1,7,2,9,1,9,2,0,9.5,7,1,9,145,7.25,1,NA,1 30,10,11,Female,20,5,texcoco,san mateo huexotla,mazatlan,mazatlan,DICEA,LE,4,1,1112,0,0,Catholic,6,2,3,No,2,5,4,2,5,4,4,5,4,5,3,1,3,3,3,2,3,3,2,3,3,3,4,3,4,3,4,3,5,4,4,2,2,7,2,3,4,2,2,2,3,2,5,5,1,1,4,4,1,5,2,2,1,1,4,1,1,1,3,5,5,3,4,3,3,NA,4,1,0,0,7,8,8,4
001026003,mexico_chapingo,10H 10M 0S,11H 26M 0S,2022-06-22,30.4813333333333,100,20,5,Male,5,1,26,3,4,NA,B,1,1,2,1,2,16,20,16,23,5,1,6,8,0,4,6,14,7,5,12,7,5,12,2,28,8,8,4,90,7,0,5,2,9,0,5,6,11,NA,9,1,0,11,7,1,9,145,7.25,1,NA,1 30,10,11,Male,19,5,texcoco,sector popular,texcoco,sector popular,DIMA,mecatronica,6,1,246,0,0,Protestant/Christian,6,8,3,Yes,2,3,4,2,4,3,3,3,3,3,3,1,2,1,3,1,3,3,3,4,4,2,4,3,3,2,3,4,4,3,4,2,3,7,2,4,4,3,3,3,2,3,4,4,2,1,3,5,1,4,1,1,1,1,3,2,3,4,3,3,5,3,2,3,1,NA,3,0,0,0,8,8,8,2
001026004,mexico_chapingo,10H 10M 0S,11H 26M 0S,2022-06-22,30.4813333333333,100,20,5,Male,5,1,26,4,3,NA,B,1,1,2,1,2,16,20,16,23,5,1,6,7,1,4,5,12,10,3,13,8,6,14,0,0,5,7,3,900,8,2,2,5,13,0,5,6,11,NA,13,1,0,11,7,1,13,165,8.25,1,NA,15 0,10,11,Male,23,5,texcoco,cooperativa,nogales,tlazacoayacan,DIA,ingenieria en agricultura,4,1,26,0,0,Catholic,6,4,4,No,145,2,3,2,3,2,2,2,3,2,4,2,2,1,3,1,3,4,4,3,4,2,4,3,3,3,2,3,4,4,4,2,3,7,2,2,3,2,2,2,2,2,3,4,3,1,3,4,1,5,1,4,1,1,3,4,4,4,4,3,5,2,3,1,3,25000,2,2,1,2,8,8,7,2
001026005,mexico_chapingo,10H 10M 0S,11H 26M 0S,2022-06-22,30.4813333333333,100,20,5,Female,5,1,26,5,6,2,B,1,1,2,1,2,16,20,16,23,4,0,8,4,3,5,4,8,8,5,13,6,6,12,0,0,7,3,7,600,6,1,5,4,10,1,6,4,10,1,10,2,0,9.5,7,1,10,150,7.5,1,NA,10 0,10,11,Female,24,5,texcoco,estado de mexico,san cristobal de las casasa,chiapas,suelos,IRNR,2,1,1,0,0,Catholic,6,3,1,No,126,5,3,5,5,4,4,5,2,5,3,1,4,1,5,1,5,5,4,3,2,4,3,3,3,4,3,NA,4,4,4,4,4,7,3,4,3,2,2,2,2,3,3,4,4,1,5,4,1,5,1,1,1,1,1,3,4,2,2,4,5,3,2,3,2,50000,3,4,0,4,7,7,7,2
001026006,mexico_chapingo,10H 10M 0S,11H 26M 0S,2022-06-22,30.4813333333333,100,20,5,Male,5,1,26,6,5,NA,B,1,1,2,1,2,16,20,16,23,5,0,7,6,3,3,6,12,5,4,9,4,4,8,2,24,8,4,0,1020,6,0,6,6,12,0,5,6,11,NA,12,3,0,8,7,1,12,160,8,1,NA,17 0,10,11,Male,26,5,texcoco,texcoco,juarez,ciudad juarez,DIMA,mecanica,3,1,12,0,0,Catholic,6,5,1,No,256,2,3,3,4,3,2,2,2,4,4,3,3,1,5,1,3,3,3,3,4,3,4,4,2,4,2,4,3,5,4,1,3,7,2,2,3,2,2,2,3,3,4,4,3,1,4,5,1,4,1,4,1,1,2,3,4,3,3,3,5,3,4,3,2,3000,3,10,1,2,7,7,4,2
001026007,mexico_chapingo,10H 10M 0S,11H 26M 0S,2022-06-22,30.4813333333333,100,20,5,Female,5,1,26,7,9,NA,B,1,1,1,1,1,16,20,12,21,3,1,8,5,1,6,5,10,7,3,10,8,1,9,2,20,8,8,4,600,3,3,6,4,7,0,5,6,11,NA,7,1,0,11,7,1,7,135,6.75,1,NA,10 0,10,11,Female,22,5,texcoco,cooperativa,la compañia,agua del espino,suelos,ingenieria en recursos naturales renovables,2,1,12,0,0,Catholic,6,2,1,No,123456,4,1,5,5,5,5,3,3,5,2,1,5,4,5,1,3,5,5,5,3,5,2,2,4,5,1,3,2,3,2,3,1,7,3,4,4,4,4,4,1,2,3,3,5,1,4,4,1,5,1,1,1,1,1,5,5,2,2,3,5,1,2,4,1,50000,2,1,0,0,3,5,4,9
001026009,mexico_chapingo,10H 10M 0S,11H 26M 0S,2022-06-22,30.4813333333333,100,20,5,Female,5,1,26,9,7,11,B,1,1,2,2,2,16,16,20,18,6,2,4,8,0,4,1,9,10,3,13,5,5,10,0,0,9,9,0,20,6,1,5,3,9,1,6,3,9,1,9,2,0,9.5,7,1,9,145,7.25,1,NA,0 20,10,11,Female,21,5,texcoco,salitreria,atempan,centro,DEIS EN SUELOS,ingenieria en recursos naturales renovables,6,1,12,0,0,Catholic,6,8,1,No,6,3,4,4,4,1,3,4,3,2,3,1,1,2,3,2,2,2,3,4,4,2,4,4,2,1,4,4,5,3,5,3,4,7,1,3,4,3,3,3,1,2,5,4,3,1,5,3,1,5,1,1,1,1,3,3,5,5,1,4,5,1,1,1,1,350000,2,3,3,0,9,10,9,1
001026010,mexico_chapingo,10H 10M 0S,11H 26M 0S,2022-06-22,30.4813333333333,100,20,5,Male,5,1,26,10,11,NA,B,1,1,2,2,2,16,20,16,23,6,2,4,5,7,0,3,8,8,2,10,6,3,9,0,0,7,6,5,60,3,9,0,3,6,0,5,6,11,NA,6,2,0,9.5,7,1,6,130,6.5,1,NA,1 0,10,11,Male,26,5,texcoco,tulantongo,NA,NA,fitotecnia,agronomo en fitotecnia,3,1,2,0,0,Catholic,6,5,1,No,36,3,2,3,3,3,2,4,4,5,3,3,5,1,4,4,3,4,4,2,5,4,4,4,4,5,2,4,2,4,4,2,3,7,3,4,4,2,2,3,4,4,5,5,4,2,3,2,1,4,1,4,1,1,4,5,2,2,2,3,5,3,5,3,2,48000,2,0,0,0,7,6,7,5
001026011,mexico_chapingo,10H 10M 0S,11H 26M 0S,2022-06-22,30.4813333333333,100,20,5,Male,5,1,26,11,10,9,B,1,1,2,2,2,16,20,16,23,6,0,6,6,3,3,3,9,6,2,8,5,3,8,2,18,8,7,0,90,4,1,7,3,7,1,4,3,7,1,7,6,0,1,7,1,7,135,6.75,1,NA,1 30,10,11,Male,19,5,texcoco,estado de mexico,tepic,nayarit,ingenieria en irrigacion,irigacion,7,1,11,0,0,Catholic,6,4,1,No,26,1,4,1,2,2,2,1,2,3,2,1,2,1,2,2,2,2,2,5,3,2,5,4,2,2,4,3,4,4,5,2,2,7,1,3,2,NA,NA,NA,NA,NA,NA,NA,NA,NA,NA,NA,NA,NA,NA,NA,NA,NA,NA,NA,NA,NA,NA,NA,NA,NA,NA,NA,NA,NA,NA,NA,NA,NA,NA,NA,NA,NA
001026013,mexico_chapingo,10H 10M 0S,11H 26M 0S,2022-06-22,30.4813333333333,100,20,5,Female,5,1,26,13,14,NA,B,1,1,2,1,2,16,20,12,23,6,1,5,7,0,5,3,10,8,4,12,7,6,13,0,0,8,7,5,150,6,3,3,5,11,0,5,6,11,NA,11,2,0,9.5,7,1,11,155,7.75,1,NA,2 30,10,11,Female,20,5,texcoco,cooperativa,tampico,tampico,suelos,ingeneria en recursos renovables,4,1,12,0,0,Catholic,6,7,3,No,6,3,3,4,4,2,4,3,2,4,5,3,4,3,5,3,3,3,4,3,4,3,4,3,3,4,4,3,4,3,5,4,3,7,1,3,3,2,2,2,2,3,5,5,2,1,5,3,2,4,1,2,1,1,1,4,4,3,3,4,5,3,4,2,2,50000,3,3,2,0,8,7,7,4
001026014,mexico_chapingo,10H 10M 0S,11H 26M 0S,2022-06-22,30.4813333333333,100,20,5,Female,5,1,26,14,13,NA,B,1,1,2,2,2,16,20,20,23,6,0,6,7,1,4,6,13,6,5,11,7,3,10,2,26,9,8,4,840,5,2,5,6,11,0,5,6,11,NA,11,1,0,11,7,1,11,155,7.75,1,NA,14 0,10,11,Female,22,5,texcoco,cooperativa,ensenada,ensenada,DIA,DIA,4,1,26,0,0,Catholic,6,6,2,No,256,5,3,4,3,3,2,3,2,1,3,1,2,4,3,1,3,4,4,4,5,3,4,3,3,2,4,4,3,5,4,4,4,7,1,3,2,2,2,2,2,1,5,4,3,1,5,4,1,5,1,2,1,1,1,1,4,3,2,4,5,2,1,3,2,10000,3,2,2,1,7,9,8,3
001026015,mexico_chapingo,10H 10M 0S,11H 26M 0S,2022-06-22,30.4813333333333,100,20,5,Male,5,1,26,15,1,NA,B,1,1,2,1,1,16,20,16,21,4,1,7,7,0,5,5,12,6,6,12,7,4,11,2,24,8,8,2,900,7,3,2,2,9,0,5,6,11,NA,9,3,0,8,7,1,9,145,7.25,1,NA,15 0,10,11,Male,23,7,cuernavaca,cuernavaca,cuernavaca,cuernavaca,agroindustrial,ingenieria agroindustrial,3,1,12,0,0,Non-religious,6,7,3,No,236,2,4,4,4,4,2,3,4,5,5,1,3,5,5,1,4,5,5,5,4,4,4,3,4,3,5,3,3,4,4,4,4,7,1,3,3,4,3,3,2,3,5,5,3,1,5,5,1,5,1,2,1,1,3,3,5,2,3,3,5,3,3,1,2,742000,4,3,1,1,6,6,6,2
